LOCATION,HOSTRADA,,DEU,HOSTRADA,999999,52.521918,13.413215,1.0,0.0
DESIGN CONDITIONS,0
TYPICAL/EXTREME PERIODS,0
GROUND TEMPERATURES,0
HOLIDAYS/DAYLIGHT SAVINGS,No,0,0,0
COMMENTS 1,Generated by hostrada4py from HOSTRADA hourly grid data
COMMENTS 2,Direct and diffuse radiation are derived from HOSTRADA global horizontal radiation using pvlib erbs_driesse
DATA PERIODS,1,1,Data,Wednesday,1/1,2/1
2025,1,1,2,60,?9?9?9?9?9?9?9?9?9,2.7,-0.2,81,101300,9999,9999,9999,0,0,0,999999,999999,999999,999999,215,5.3,99,99,9999.0,99999,9,999999999,999.0,0.999,999,99,999.00,999.0,99
2025,1,1,3,60,?9?9?9?9?9?9?9?9?9,2.9,-0.0,81,101300,9999,9999,9999,0,0,0,999999,999999,999999,999999,214,6.4,99,99,9999.0,99999,9,999999999,999.0,0.999,999,99,999.00,999.0,99
2025,1,1,4,60,?9?9?9?9?9?9?9?9?9,2.7,-0.4,80,101300,9999,9999,9999,0,0,0,999999,999999,999999,999999,215,6.2,99,99,9999.0,99999,9,999999999,999.0,0.999,999,99,999.00,999.0,99
2025,1,1,5,60,?9?9?9?9?9?9?9?9?9,3.1,-0.1,80,101200,9999,9999,9999,0,0,0,999999,999999,999999,999999,217,5.7,99,99,9999.0,99999,9,999999999,999.0,0.999,999,99,999.00,999.0,99
2025,1,1,6,60,?9?9?9?9?9?9?9?9?9,3.4,0.0,78,101100,9999,9999,9999,0,0,0,999999,999999,999999,999999,223,6.4,99,99,9999.0,99999,9,999999999,999.0,0.999,999,99,999.00,999.0,99
2025,1,1,7,60,?9?9?9?9?9?9?9?9?9,3.8,0.4,78,101100,9999,9999,9999,0,0,0,999999,999999,999999,999999,223,6.7,99,99,9999.0,99999,9,999999999,999.0,0.999,999,99,999.00,999.0,99
2025,1,1,8,60,?9?9?9?9?9?9?9?9?9,4.2,0.7,78,101000,9999,9999,9999,0,0,0,999999,999999,999999,999999,213,6.4,99,99,9999.0,99999,9,999999999,999.0,0.999,999,99,999.00,999.0,99
2025,1,1,9,60,?9?9?9?9?9?9?9?9?9,4.6,1.0,78,100900,9999,9999,9999,0,0,0,999999,999999,999999,999999,214,6.4,99,99,9999.0,99999,9,999999999,999.0,0.999,999,99,999.00,999.0,99
2025,1,1,10,60,?9?9?9?9?9?9?9?9?9,4.8,1.1,77,100900,9999,9999,9999,8,1,7,999999,999999,999999,999999,221,7.0,99,99,9999.0,99999,9,999999999,999.0,0.999,999,99,999.00,999.0,99
2025,1,1,11,60,?9?9?9?9?9?9?9?9?9,5.4,1.7,77,100900,9999,9999,9999,54,7,53,999999,999999,999999,999999,224,6.6,99,99,9999.0,99999,9,999999999,999.0,0.999,999,99,999.00,999.0,99
2025,1,1,12,60,?9?9?9?9?9?9?9?9?9,6.2,2.3,76,100800,9999,9999,9999,94,20,89,999999,999999,999999,999999,222,7.2,99,99,9999.0,99999,9,999999999,999.0,0.999,999,99,999.00,999.0,99
2025,1,1,13,60,?9?9?9?9?9?9?9?9?9,6.6,2.3,74,100800,9999,9999,9999,75,6,74,999999,999999,999999,999999,222,7.8,99,99,9999.0,99999,9,999999999,999.0,0.999,999,99,999.00,999.0,99
2025,1,1,14,60,?9?9?9?9?9?9?9?9?9,7.1,2.5,72,100600,9999,9999,9999,80,8,78,999999,999999,999999,999999,224,8.4,99,99,9999.0,99999,9,999999999,999.0,0.999,999,99,999.00,999.0,99
2025,1,1,15,60,?9?9?9?9?9?9?9?9?9,7.1,2.2,71,100500,9999,9999,9999,51,5,50,999999,999999,999999,999999,217,7.6,99,99,9999.0,99999,9,999999999,999.0,0.999,999,99,999.00,999.0,99
2025,1,1,16,60,?9?9?9?9?9?9?9?9?9,7.1,2.1,70,100400,9999,9999,9999,15,1,15,999999,999999,999999,999999,224,7.2,99,99,9999.0,99999,9,999999999,999.0,0.999,999,99,999.00,999.0,99
2025,1,1,17,60,?9?9?9?9?9?9?9?9?9,7.2,1.8,69,100300,9999,9999,9999,4,0,4,999999,999999,999999,999999,220,7.2,99,99,9999.0,99999,9,999999999,999.0,0.999,999,99,999.00,999.0,99
2025,1,1,18,60,?9?9?9?9?9?9?9?9?9,7.2,1.3,66,100300,9999,9999,9999,0,0,0,999999,999999,999999,999999,219,7.6,99,99,9999.0,99999,9,999999999,999.0,0.999,999,99,999.00,999.0,99
2025,1,1,19,60,?9?9?9?9?9?9?9?9?9,7.1,0.9,64,100200,9999,9999,9999,0,0,0,999999,999999,999999,999999,222,8.8,99,99,9999.0,99999,9,999999999,999.0,0.999,999,99,999.00,999.0,99
2025,1,1,20,60,?9?9?9?9?9?9?9?9?9,7.2,0.9,64,100100,9999,9999,9999,0,0,0,999999,999999,999999,999999,232,8.7,99,99,9999.0,99999,9,999999999,999.0,0.999,999,99,999.00,999.0,99
2025,1,1,21,60,?9?9?9?9?9?9?9?9?9,7.2,1.2,66,100100,9999,9999,9999,0,0,0,999999,999999,999999,999999,229,8.3,99,99,9999.0,99999,9,999999999,999.0,0.999,999,99,999.00,999.0,99
2025,1,1,22,60,?9?9?9?9?9?9?9?9?9,7.7,2.0,67,100000,9999,9999,9999,0,0,0,999999,999999,999999,999999,224,8.9,99,99,9999.0,99999,9,999999999,999.0,0.999,999,99,999.00,999.0,99
2025,1,1,23,60,?9?9?9?9?9?9?9?9?9,8.0,2.0,66,100000,9999,9999,9999,0,0,0,999999,999999,999999,999999,228,8.7,99,99,9999.0,99999,9,999999999,999.0,0.999,999,99,999.00,999.0,99
2025,1,1,24,60,?9?9?9?9?9?9?9?9?9,8.1,1.6,64,99900,9999,9999,9999,0,0,0,999999,999999,999999,999999,222,8.8,99,99,9999.0,99999,9,999999999,999.0,0.999,999,99,999.00,999.0,99
2025,1,2,1,60,?9?9?9?9?9?9?9?9?9,8.3,1.9,64,99900,9999,9999,9999,0,0,0,999999,999999,999999,999999,224,8.0,99,99,9999.0,99999,9,999999999,999.0,0.999,999,99,999.00,999.0,99
2025,1,2,2,60,?9?9?9?9?9?9?9?9?9,8.5,2.7,67,99800,9999,9999,9999,0,0,0,999999,999999,999999,999999,230,8.1,99,99,9999.0,99999,9,999999999,999.0,0.999,999,99,999.00,999.0,99
2025,1,2,3,60,?9?9?9?9?9?9?9?9?9,8.1,3.2,71,99800,9999,9999,9999,0,0,0,999999,999999,999999,999999,232,7.7,99,99,9999.0,99999,9,999999999,999.0,0.999,999,99,999.00,999.0,99
2025,1,2,4,60,?9?9?9?9?9?9?9?9?9,7.7,3.6,75,99700,9999,9999,9999,0,0,0,999999,999999,999999,999999,241,7.2,99,99,9999.0,99999,9,999999999,999.0,0.999,999,99,999.00,999.0,99
2025,1,2,5,60,?9?9?9?9?9?9?9?9?9,6.3,3.8,84,99800,9999,9999,9999,0,0,0,999999,999999,999999,999999,254,5.9,99,99,9999.0,99999,9,999999999,999.0,0.999,999,99,999.00,999.0,99
2025,1,2,6,60,?9?9?9?9?9?9?9?9?9,6.3,5.0,91,99800,9999,9999,9999,0,0,0,999999,999999,999999,999999,242,5.4,99,99,9999.0,99999,9,999999999,999.0,0.999,999,99,999.00,999.0,99
2025,1,2,7,60,?9?9?9?9?9?9?9?9?9,6.6,4.9,89,99800,9999,9999,9999,0,0,0,999999,999999,999999,999999,250,6.5,99,99,9999.0,99999,9,999999999,999.0,0.999,999,99,999.00,999.0,99
2025,1,2,8,60,?9?9?9?9?9?9?9?9?9,5.5,2.9,83,99800,9999,9999,9999,0,0,0,999999,999999,999999,999999,261,8.9,99,99,9999.0,99999,9,999999999,999.0,0.999,999,99,999.00,999.0,99
2025,1,2,9,60,?9?9?9?9?9?9?9?9?9,3.9,0.6,79,99900,9999,9999,9999,0,0,0,999999,999999,999999,999999,286,6.4,99,99,9999.0,99999,9,999999999,999.0,0.999,999,99,999.00,999.0,99
2025,1,2,10,60,?9?9?9?9?9?9?9?9?9,3.3,0.0,79,100100,9999,9999,9999,18,4,17,999999,999999,999999,999999,284,5.7,99,99,9999.0,99999,9,999999999,999.0,0.999,999,99,999.00,999.0,99
2025,1,2,11,60,?9?9?9?9?9?9?9?9?9,3.4,0.5,81,100200,9999,9999,9999,76,34,70,999999,999999,999999,999999,273,4.9,99,99,9999.0,99999,9,999999999,999.0,0.999,999,99,999.00,999.0,99
2025,1,2,12,60,?9?9?9?9?9?9?9?9?9,3.9,1.0,82,100300,9999,9999,9999,104,33,97,999999,999999,999999,999999,262,5.2,99,99,9999.0,99999,9,999999999,999.0,0.999,999,99,999.00,999.0,99
2025,1,2,13,60,?9?9?9?9?9?9?9?9?9,3.9,1.0,81,100400,9999,9999,9999,178,240,117,999999,999999,999999,999999,263,5.2,99,99,9999.0,99999,9,999999999,999.0,0.999,999,99,999.00,999.0,99
2025,1,2,14,60,?9?9?9?9?9?9?9?9?9,4.7,1.5,80,100400,9999,9999,9999,198,436,94,999999,999999,999999,999999,259,5.5,99,99,9999.0,99999,9,999999999,999.0,0.999,999,99,999.00,999.0,99
2025,1,2,15,60,?9?9?9?9?9?9?9?9?9,4.8,1.1,77,100300,9999,9999,9999,112,110,91,999999,999999,999999,999999,268,4.8,99,99,9999.0,99999,9,999999999,999.0,0.999,999,99,999.00,999.0,99
2025,1,2,16,60,?9?9?9?9?9?9?9?9?9,4.9,1.1,76,100300,9999,9999,9999,40,12,39,999999,999999,999999,999999,267,4.5,99,99,9999.0,99999,9,999999999,999.0,0.999,999,99,999.00,999.0,99
2025,1,2,17,60,?9?9?9?9?9?9?9?9?9,4.7,0.9,76,100300,9999,9999,9999,4,0,4,999999,999999,999999,999999,267,4.2,99,99,9999.0,99999,9,999999999,999.0,0.999,999,99,999.00,999.0,99
2025,1,2,18,60,?9?9?9?9?9?9?9?9?9,4.0,0.4,78,100400,9999,9999,9999,0,0,0,999999,999999,999999,999999,286,3.4,99,99,9999.0,99999,9,999999999,999.0,0.999,999,99,999.00,999.0,99
2025,1,2,19,60,?9?9?9?9?9?9?9?9?9,3.9,0.5,78,100400,9999,9999,9999,0,0,0,999999,999999,999999,999999,274,3.7,99,99,9999.0,99999,9,999999999,999.0,0.999,999,99,999.00,999.0,99
2025,1,2,20,60,?9?9?9?9?9?9?9?9?9,3.9,0.5,79,100400,9999,9999,9999,0,0,0,999999,999999,999999,999999,263,3.6,99,99,9999.0,99999,9,999999999,999.0,0.999,999,99,999.00,999.0,99
2025,1,2,21,60,?9?9?9?9?9?9?9?9?9,3.7,0.7,81,100400,9999,9999,9999,0,0,0,999999,999999,999999,999999,260,4.3,99,99,9999.0,99999,9,999999999,999.0,0.999,999,99,999.00,999.0,99
2025,1,2,22,60,?9?9?9?9?9?9?9?9?9,3.1,0.4,82,100500,9999,9999,9999,0,0,0,999999,999999,999999,999999,265,4.5,99,99,9999.0,99999,9,999999999,999.0,0.999,999,99,999.00,999.0,99
2025,1,2,23,60,?9?9?9?9?9?9?9?9?9,2.9,0.3,83,100500,9999,9999,9999,0,0,0,999999,999999,999999,999999,264,4.9,99,99,9999.0,99999,9,999999999,999.0,0.999,999,99,999.00,999.0,99
2025,1,2,24,60,?9?9?9?9?9?9?9?9?9,2.5,0.2,85,100500,9999,9999,9999,0,0,0,999999,999999,999999,999999,268,5.2,99,99,9999.0,99999,9,999999999,999.0,0.999,999,99,999.00,999.0,99
2025,1,3,1,60,?9?9?9?9?9?9?9?9?9,2.9,0.7,85,100500,9999,9999,9999,0,0,0,999999,999999,999999,999999,267,5.0,99,99,9999.0,99999,9,999999999,999.0,0.999,999,99,999.00,999.0,99
2025,1,3,2,60,?9?9?9?9?9?9?9?9?9,3.0,0.7,85,100600,9999,9999,9999,0,0,0,999999,999999,999999,999999,267,5.7,99,99,9999.0,99999,9,999999999,999.0,0.999,999,99,999.00,999.0,99
2025,1,3,3,60,?9?9?9?9?9?9?9?9?9,3.1,0.7,84,100600,9999,9999,9999,0,0,0,999999,999999,999999,999999,266,5.0,99,99,9999.0,99999,9,999999999,999.0,0.999,999,99,999.00,999.0,99
2025,1,3,4,60,?9?9?9?9?9?9?9?9?9,3.0,0.3,82,100600,9999,9999,9999,0,0,0,999999,999999,999999,999999,270,5.2,99,99,9999.0,99999,9,999999999,999.0,0.999,999,99,999.00,999.0,99
2025,1,3,5,60,?9?9?9?9?9?9?9?9?9,2.8,-0.1,81,100600,9999,9999,9999,0,0,0,999999,999999,999999,999999,259,5.4,99,99,9999.0,99999,9,999999999,999.0,0.999,999,99,999.00,999.0,99
2025,1,3,6,60,?9?9?9?9?9?9?9?9?9,2.8,-0.1,81,100600,9999,9999,9999,0,0,0,999999,999999,999999,999999,270,5.2,99,99,9999.0,99999,9,999999999,999.0,0.999,999,99,999.00,999.0,99
2025,1,3,7,60,?9?9?9?9?9?9?9?9?9,2.9,-0.3,79,100600,9999,9999,9999,0,0,0,999999,999999,999999,999999,262,5.5,99,99,9999.0,99999,9,999999999,999.0,0.999,999,99,999.00,999.0,99
2025,1,3,8,60,?9?9?9?9?9?9?9?9?9,3.0,-0.4,78,100600,9999,9999,9999,0,0,0,999999,999999,999999,999999,254,5.8,99,99,9999.0,99999,9,999999999,999.0,0.999,999,99,999.00,999.0,99
2025,1,3,9,60,?9?9?9?9?9?9?9?9?9,2.5,-0.4,81,100500,9999,9999,9999,0,0,0,999999,999999,999999,999999,253,5.3,99,99,9999.0,99999,9,999999999,999.0,0.999,999,99,999.00,999.0,99
2025,1,3,10,60,?9?9?9?9?9?9?9?9?9,2.6,0.0,83,100500,9999,9999,9999,4,0,4,999999,999999,999999,999999,259,6.3,99,99,9999.0,99999,9,999999999,999.0,0.999,999,99,999.00,999.0,99
2025,1,3,11,60,?9?9?9?9?9?9?9?9?9,2.7,-0.2,81,100500,9999,9999,9999,60,11,59,999999,999999,999999,999999,251,6.5,99,99,9999.0,99999,9,999999999,999.0,0.999,999,99,999.00,999.0,99
2025,1,3,12,60,?9?9?9?9?9?9?9?9?9,3.0,-0.5,78,100500,9999,9999,9999,76,8,75,999999,999999,999999,999999,257,7.5,99,99,9999.0,99999,9,999999999,999.0,0.999,999,99,999.00,999.0,99
2025,1,3,13,60,?9?9?9?9?9?9?9?9?9,3.3,-0.9,74,100500,9999,9999,9999,63,4,62,999999,999999,999999,999999,251,8.0,99,99,9999.0,99999,9,999999999,999.0,0.999,999,99,999.00,999.0,99
2025,1,3,14,60,?9?9?9?9?9?9?9?9?9,3.4,-1.4,71,100400,9999,9999,9999,64,5,63,999999,999999,999999,999999,251,8.3,99,99,9999.0,99999,9,999999999,999.0,0.999,999,99,999.00,999.0,99
2025,1,3,15,60,?9?9?9?9?9?9?9?9?9,3.8,-1.6,68,100300,9999,9999,9999,54,5,53,999999,999999,999999,999999,257,8.9,99,99,9999.0,99999,9,999999999,999.0,0.999,999,99,999.00,999.0,99
2025,1,3,16,60,?9?9?9?9?9?9?9?9?9,1.1,-2.3,78,100200,9999,9999,9999,17,2,17,999999,999999,999999,999999,263,8.4,99,99,9999.0,99999,9,999999999,999.0,0.999,999,99,999.00,999.0,99
2025,1,3,17,60,?9?9?9?9?9?9?9?9?9,1.0,-0.2,92,100300,9999,9999,9999,4,0,4,999999,999999,999999,999999,272,7.1,99,99,9999.0,99999,9,999999999,999.0,0.999,999,99,999.00,999.0,99
2025,1,3,18,60,?9?9?9?9?9?9?9?9?9,0.7,-0.9,89,100300,9999,9999,9999,0,0,0,999999,999999,999999,999999,281,7.6,99,99,9999.0,99999,9,999999999,999.0,0.999,999,99,999.00,999.0,99
2025,1,3,19,60,?9?9?9?9?9?9?9?9?9,0.7,-1.6,84,100400,9999,9999,9999,0,0,0,999999,999999,999999,999999,282,7.0,99,99,9999.0,99999,9,999999999,999.0,0.999,999,99,999.00,999.0,99
2025,1,3,20,60,?9?9?9?9?9?9?9?9?9,0.0,-2.8,81,100500,9999,9999,9999,0,0,0,999999,999999,999999,999999,272,6.2,99,99,9999.0,99999,9,999999999,999.0,0.999,999,99,999.00,999.0,99
2025,1,3,21,60,?9?9?9?9?9?9?9?9?9,-0.3,-3.1,82,100600,9999,9999,9999,0,0,0,999999,999999,999999,999999,270,5.8,99,99,9999.0,99999,9,999999999,999.0,0.999,999,99,999.00,999.0,99
2025,1,3,22,60,?9?9?9?9?9?9?9?9?9,-0.2,-2.5,85,100700,9999,9999,9999,0,0,0,999999,999999,999999,999999,272,6.3,99,99,9999.0,99999,9,999999999,999.0,0.999,999,99,999.00,999.0,99
2025,1,3,23,60,?9?9?9?9?9?9?9?9?9,-0.4,-2.4,86,100800,9999,9999,9999,0,0,0,999999,999999,999999,999999,262,6.0,99,99,9999.0,99999,9,999999999,999.0,0.999,999,99,999.00,999.0,99
2025,1,3,24,60,?9?9?9?9?9?9?9?9?9,-0.4,-2.3,87,100800,9999,9999,9999,0,0,0,999999,999999,999999,999999,270,6.4,99,99,9999.0,99999,9,999999999,999.0,0.999,999,99,999.00,999.0,99
2025,1,4,1,60,?9?9?9?9?9?9?9?9?9,-0.3,-2.2,87,100900,9999,9999,9999,0,0,0,999999,999999,999999,999999,273,6.7,99,99,9999.0,99999,9,999999999,999.0,0.999,999,99,999.00,999.0,99
2025,1,4,2,60,?9?9?9?9?9?9?9?9?9,0.0,-2.2,85,100900,9999,9999,9999,0,0,0,999999,999999,999999,999999,291,7.2,99,99,9999.0,99999,9,999999999,999.0,0.999,999,99,999.00,999.0,99
2025,1,4,3,60,?9?9?9?9?9?9?9?9?9,0.3,-2.3,82,101000,9999,9999,9999,0,0,0,999999,999999,999999,999999,280,6.0,99,99,9999.0,99999,9,999999999,999.0,0.999,999,99,999.00,999.0,99
2025,1,4,4,60,?9?9?9?9?9?9?9?9?9,0.2,-2.5,82,101100,9999,9999,9999,0,0,0,999999,999999,999999,999999,282,5.7,99,99,9999.0,99999,9,999999999,999.0,0.999,999,99,999.00,999.0,99
2025,1,4,5,60,?9?9?9?9?9?9?9?9?9,0.4,-2.3,82,101200,9999,9999,9999,0,0,0,999999,999999,999999,999999,291,5.6,99,99,9999.0,99999,9,999999999,999.0,0.999,999,99,999.00,999.0,99
2025,1,4,6,60,?9?9?9?9?9?9?9?9?9,0.3,-2.6,81,101200,9999,9999,9999,0,0,0,999999,999999,999999,999999,285,5.2,99,99,9999.0,99999,9,999999999,999.0,0.999,999,99,999.00,999.0,99
2025,1,4,7,60,?9?9?9?9?9?9?9?9?9,0.2,-2.7,81,101300,9999,9999,9999,0,0,0,999999,999999,999999,999999,289,4.8,99,99,9999.0,99999,9,999999999,999.0,0.999,999,99,999.00,999.0,99
2025,1,4,8,60,?9?9?9?9?9?9?9?9?9,0.2,-2.7,81,101400,9999,9999,9999,0,0,0,999999,999999,999999,999999,267,4.6,99,99,9999.0,99999,9,999999999,999.0,0.999,999,99,999.00,999.0,99
2025,1,4,9,60,?9?9?9?9?9?9?9?9?9,-0.1,-3.0,81,101400,9999,9999,9999,0,0,0,999999,999999,999999,999999,283,3.9,99,99,9999.0,99999,9,999999999,999.0,0.999,999,99,999.00,999.0,99
2025,1,4,10,60,?9?9?9?9?9?9?9?9?9,0.2,-2.6,82,101400,9999,9999,9999,6,0,6,999999,999999,999999,999999,285,3.4,99,99,9999.0,99999,9,999999999,999.0,0.999,999,99,999.00,999.0,99
2025,1,4,11,60,?9?9?9?9?9?9?9?9?9,0.1,-2.4,83,101500,9999,9999,9999,39,4,39,999999,999999,999999,999999,280,3.9,99,99,9999.0,99999,9,999999999,999.0,0.999,999,99,999.00,999.0,99
2025,1,4,12,60,?9?9?9?9?9?9?9?9?9,0.1,-2.2,85,101500,9999,9999,9999,70,6,69,999999,999999,999999,999999,268,3.6,99,99,9999.0,99999,9,999999999,999.0,0.999,999,99,999.00,999.0,99
2025,1,4,13,60,?9?9?9?9?9?9?9?9?9,0.0,-2.2,85,101500,9999,9999,9999,79,6,78,999999,999999,999999,999999,249,3.7,99,99,9999.0,99999,9,999999999,999.0,0.999,999,99,999.00,999.0,99
2025,1,4,14,60,?9?9?9?9?9?9?9?9?9,0.3,-2.0,84,101500,9999,9999,9999,124,55,111,999999,999999,999999,999999,236,3.1,99,99,9999.0,99999,9,999999999,999.0,0.999,999,99,999.00,999.0,99
2025,1,4,15,60,?9?9?9?9?9?9?9?9?9,0.6,-1.8,84,101400,9999,9999,9999,112,99,93,999999,999999,999999,999999,217,2.7,99,99,9999.0,99999,9,999999999,999.0,0.999,999,99,999.00,999.0,99
2025,1,4,16,60,?9?9?9?9?9?9?9?9?9,0.8,-1.8,83,101400,9999,9999,9999,57,57,51,999999,999999,999999,999999,212,2.8,99,99,9999.0,99999,9,999999999,999.0,0.999,999,99,999.00,999.0,99
2025,1,4,17,60,?9?9?9?9?9?9?9?9?9,0.9,-1.8,82,101300,9999,9999,9999,22,0,22,999999,999999,999999,999999,196,2.3,99,99,9999.0,99999,9,999999999,999.0,0.999,999,99,999.00,999.0,99
2025,1,4,18,60,?9?9?9?9?9?9?9?9?9,0.8,-1.9,82,101300,9999,9999,9999,0,0,0,999999,999999,999999,999999,201,2.8,99,99,9999.0,99999,9,999999999,999.0,0.999,999,99,999.00,999.0,99
2025,1,4,19,60,?9?9?9?9?9?9?9?9?9,0.8,-1.8,82,101300,9999,9999,9999,0,0,0,999999,999999,999999,999999,199,3.0,99,99,9999.0,99999,9,999999999,999.0,0.999,999,99,999.00,999.0,99
2025,1,4,20,60,?9?9?9?9?9?9?9?9?9,0.9,-1.6,84,101300,9999,9999,9999,0,0,0,999999,999999,999999,999999,200,3.2,99,99,9999.0,99999,9,999999999,999.0,0.999,999,99,999.00,999.0,99
2025,1,4,21,60,?9?9?9?9?9?9?9?9?9,0.9,-1.4,84,101200,9999,9999,9999,0,0,0,999999,999999,999999,999999,200,2.9,99,99,9999.0,99999,9,999999999,999.0,0.999,999,99,999.00,999.0,99
2025,1,4,22,60,?9?9?9?9?9?9?9?9?9,0.9,-1.4,84,101200,9999,9999,9999,0,0,0,999999,999999,999999,999999,209,2.5,99,99,9999.0,99999,9,999999999,999.0,0.999,999,99,999.00,999.0,99
2025,1,4,23,60,?9?9?9?9?9?9?9?9?9,0.6,-1.8,84,101100,9999,9999,9999,0,0,0,999999,999999,999999,999999,217,2.9,99,99,9999.0,99999,9,999999999,999.0,0.999,999,99,999.00,999.0,99
2025,1,4,24,60,?9?9?9?9?9?9?9?9?9,0.2,-2.2,84,101100,9999,9999,9999,0,0,0,999999,999999,999999,999999,197,2.8,99,99,9999.0,99999,9,999999999,999.0,0.999,999,99,999.00,999.0,99
2025,1,5,1,60,?9?9?9?9?9?9?9?9?9,0.1,-2.1,85,101000,9999,9999,9999,0,0,0,999999,999999,999999,999999,199,2.4,99,99,9999.0,99999,9,999999999,999.0,0.999,999,99,999.00,999.0,99
2025,1,5,2,60,?9?9?9?9?9?9?9?9?9,0.2,-1.8,86,101000,9999,9999,9999,0,0,0,999999,999999,999999,999999,197,2.3,99,99,9999.0,99999,9,999999999,999.0,0.999,999,99,999.00,999.0,99
2025,1,5,3,60,?9?9?9?9?9?9?9?9?9,0.1,-1.7,88,101000,9999,9999,9999,0,0,0,999999,999999,999999,999999,187,2.2,99,99,9999.0,99999,9,999999999,999.0,0.999,999,99,999.00,999.0,99
2025,1,5,4,60,?9?9?9?9?9?9?9?9?9,-0.3,-2.1,88,100900,9999,9999,9999,0,0,0,999999,999999,999999,999999,169,1.9,99,99,9999.0,99999,9,999999999,999.0,0.999,999,99,999.00,999.0,99
2025,1,5,5,60,?9?9?9?9?9?9?9?9?9,-1.2,-2.8,89,100900,9999,9999,9999,0,0,0,999999,999999,999999,999999,152,1.9,99,99,9999.0,99999,9,999999999,999.0,0.999,999,99,999.00,999.0,99
2025,1,5,6,60,?9?9?9?9?9?9?9?9?9,-1.7,-3.1,90,100800,9999,9999,9999,0,0,0,999999,999999,999999,999999,145,1.9,99,99,9999.0,99999,9,999999999,999.0,0.999,999,99,999.00,999.0,99
2025,1,5,7,60,?9?9?9?9?9?9?9?9?9,-1.8,-3.1,91,100700,9999,9999,9999,0,0,0,999999,999999,999999,999999,130,2.1,99,99,9999.0,99999,9,999999999,999.0,0.999,999,99,999.00,999.0,99
2025,1,5,8,60,?9?9?9?9?9?9?9?9?9,-1.7,-3.0,91,100700,9999,9999,9999,0,0,0,999999,999999,999999,999999,141,2.7,99,99,9999.0,99999,9,999999999,999.0,0.999,999,99,999.00,999.0,99
2025,1,5,9,60,?9?9?9?9?9?9?9?9?9,-1.7,-3.0,90,100600,9999,9999,9999,0,0,0,999999,999999,999999,999999,142,2.9,99,99,9999.0,99999,9,999999999,999.0,0.999,999,99,999.00,999.0,99
2025,1,5,10,60,?9?9?9?9?9?9?9?9?9,-1.6,-3.1,89,100600,9999,9999,9999,6,0,6,999999,999999,999999,999999,142,2.8,99,99,9999.0,99999,9,999999999,999.0,0.999,999,99,999.00,999.0,99
2025,1,5,11,60,?9?9?9?9?9?9?9?9?9,-1.1,-3.0,87,100500,9999,9999,9999,36,3,36,999999,999999,999999,999999,109,2.5,99,99,9999.0,99999,9,999999999,999.0,0.999,999,99,999.00,999.0,99
2025,1,5,12,60,?9?9?9?9?9?9?9?9?9,-0.7,-3.1,84,100500,9999,9999,9999,88,13,85,999999,999999,999999,999999,123,3.3,99,99,9999.0,99999,9,999999999,999.0,0.999,999,99,999.00,999.0,99
2025,1,5,13,60,?9?9?9?9?9?9?9?9?9,0.1,-2.8,81,100400,9999,9999,9999,78,6,76,999999,999999,999999,999999,134,3.4,99,99,9999.0,99999,9,999999999,999.0,0.999,999,99,999.00,999.0,99
2025,1,5,14,60,?9?9?9?9?9?9?9?9?9,0.2,-3.2,78,100200,9999,9999,9999,37,1,37,999999,999999,999999,999999,127,4.3,99,99,9999.0,99999,9,999999999,999.0,0.999,999,99,999.00,999.0,99
2025,1,5,15,60,?9?9?9?9?9?9?9?9?9,0.7,-3.2,75,100100,9999,9999,9999,32,2,31,999999,999999,999999,999999,127,4.6,99,99,9999.0,99999,9,999999999,999.0,0.999,999,99,999.00,999.0,99
2025,1,5,16,60,?9?9?9?9?9?9?9?9?9,0.9,-3.5,73,99900,9999,9999,9999,17,1,17,999999,999999,999999,999999,127,4.7,99,99,9999.0,99999,9,999999999,999.0,0.999,999,99,999.00,999.0,99
2025,1,5,17,60,?9?9?9?9?9?9?9?9?9,0.4,-3.3,76,99800,9999,9999,9999,2,0,2,999999,999999,999999,999999,126,5.0,99,99,9999.0,99999,9,999999999,999.0,0.999,999,99,999.00,999.0,99
2025,1,5,18,60,?9?9?9?9?9?9?9?9?9,-0.4,-2.5,86,99700,9999,9999,9999,0,0,0,999999,999999,999999,999999,117,4.8,99,99,9999.0,99999,9,999999999,999.0,0.999,999,99,999.00,999.0,99
2025,1,5,19,60,?9?9?9?9?9?9?9?9?9,-0.2,-1.3,92,99600,9999,9999,9999,0,0,0,999999,999999,999999,999999,117,5.2,99,99,9999.0,99999,9,999999999,999.0,0.999,999,99,999.00,999.0,99
2025,1,5,20,60,?9?9?9?9?9?9?9?9?9,-0.1,-1.0,94,99500,9999,9999,9999,0,0,0,999999,999999,999999,999999,121,5.8,99,99,9999.0,99999,9,999999999,999.0,0.999,999,99,999.00,999.0,99
2025,1,5,21,60,?9?9?9?9?9?9?9?9?9,0.3,-0.5,94,99400,9999,9999,9999,0,0,0,999999,999999,999999,999999,128,5.6,99,99,9999.0,99999,9,999999999,999.0,0.999,999,99,999.00,999.0,99
2025,1,5,22,60,?9?9?9?9?9?9?9?9?9,0.6,-0.2,95,99300,9999,9999,9999,0,0,0,999999,999999,999999,999999,126,5.3,99,99,9999.0,99999,9,999999999,999.0,0.999,999,99,999.00,999.0,99
2025,1,5,23,60,?9?9?9?9?9?9?9?9?9,0.9,0.3,96,99200,9999,9999,9999,0,0,0,999999,999999,999999,999999,120,4.5,99,99,9999.0,99999,9,999999999,999.0,0.999,999,99,999.00,999.0,99
2025,1,5,24,60,?9?9?9?9?9?9?9?9?9,1.0,0.5,97,99100,9999,9999,9999,0,0,0,999999,999999,999999,999999,134,4.3,99,99,9999.0,99999,9,999999999,999.0,0.999,999,99,999.00,999.0,99
2025,1,6,1,60,?9?9?9?9?9?9?9?9?9,1.2,0.8,97,99000,9999,9999,9999,0,0,0,999999,999999,999999,999999,150,4.0,99,99,9999.0,99999,9,999999999,999.0,0.999,999,99,999.00,999.0,99
2025,1,6,2,60,?9?9?9?9?9?9?9?9?9,1.7,1.4,98,98900,9999,9999,9999,0,0,0,999999,999999,999999,999999,155,3.1,99,99,9999.0,99999,9,999999999,999.0,0.999,999,99,999.00,999.0,99
2025,1,6,3,60,?9?9?9?9?9?9?9?9?9,2.6,2.4,98,98800,9999,9999,9999,0,0,0,999999,999999,999999,999999,173,2.9,99,99,9999.0,99999,9,999999999,999.0,0.999,999,99,999.00,999.0,99
2025,1,6,4,60,?9?9?9?9?9?9?9?9?9,3.5,3.3,99,98800,9999,9999,9999,0,0,0,999999,999999,999999,999999,179,2.5,99,99,9999.0,99999,9,999999999,999.0,0.999,999,99,999.00,999.0,99
2025,1,6,5,60,?9?9?9?9?9?9?9?9?9,4.6,4.4,99,98700,9999,9999,9999,0,0,0,999999,999999,999999,999999,178,2.5,99,99,9999.0,99999,9,999999999,999.0,0.999,999,99,999.00,999.0,99
2025,1,6,6,60,?9?9?9?9?9?9?9?9?9,6.4,6.1,98,98700,9999,9999,9999,0,0,0,999999,999999,999999,999999,194,3.3,99,99,9999.0,99999,9,999999999,999.0,0.999,999,99,999.00,999.0,99
2025,1,6,7,60,?9?9?9?9?9?9?9?9?9,6.9,6.5,98,98700,9999,9999,9999,0,0,0,999999,999999,999999,999999,191,3.4,99,99,9999.0,99999,9,999999999,999.0,0.999,999,99,999.00,999.0,99
2025,1,6,8,60,?9?9?9?9?9?9?9?9?9,7.6,7.1,96,98700,9999,9999,9999,0,0,0,999999,999999,999999,999999,194,3.9,99,99,9999.0,99999,9,999999999,999.0,0.999,999,99,999.00,999.0,99
2025,1,6,9,60,?9?9?9?9?9?9?9?9?9,8.1,7.2,94,98600,9999,9999,9999,0,0,0,999999,999999,999999,999999,203,3.3,99,99,9999.0,99999,9,999999999,999.0,0.999,999,99,999.00,999.0,99
2025,1,6,10,60,?9?9?9?9?9?9?9?9?9,8.3,7.3,93,98600,9999,9999,9999,6,0,6,999999,999999,999999,999999,194,3.7,99,99,9999.0,99999,9,999999999,999.0,0.999,999,99,999.00,999.0,99
2025,1,6,11,60,?9?9?9?9?9?9?9?9?9,8.6,7.4,92,98600,9999,9999,9999,22,1,21,999999,999999,999999,999999,202,3.3,99,99,9999.0,99999,9,999999999,999.0,0.999,999,99,999.00,999.0,99
2025,1,6,12,60,?9?9?9?9?9?9?9?9?9,9.6,7.7,88,98600,9999,9999,9999,59,4,58,999999,999999,999999,999999,205,4.8,99,99,9999.0,99999,9,999999999,999.0,0.999,999,99,999.00,999.0,99
2025,1,6,13,60,?9?9?9?9?9?9?9?9?9,9.7,6.8,82,98600,9999,9999,9999,56,3,56,999999,999999,999999,999999,193,3.6,99,99,9999.0,99999,9,999999999,999.0,0.999,999,99,999.00,999.0,99
2025,1,6,14,60,?9?9?9?9?9?9?9?9?9,10.1,6.4,78,98600,9999,9999,9999,37,1,37,999999,999999,999999,999999,191,4.9,99,99,9999.0,99999,9,999999999,999.0,0.999,999,99,999.00,999.0,99
2025,1,6,15,60,?9?9?9?9?9?9?9?9?9,10.1,5.9,75,98600,9999,9999,9999,31,2,31,999999,999999,999999,999999,200,4.8,99,99,9999.0,99999,9,999999999,999.0,0.999,999,99,999.00,999.0,99
2025,1,6,16,60,?9?9?9?9?9?9?9?9?9,10.0,5.8,75,98600,9999,9999,9999,22,2,21,999999,999999,999999,999999,165,3.8,99,99,9999.0,99999,9,999999999,999.0,0.999,999,99,999.00,999.0,99
2025,1,6,17,60,?9?9?9?9?9?9?9?9?9,11.5,6.4,71,98500,9999,9999,9999,6,0,6,999999,999999,999999,999999,186,4.7,99,99,9999.0,99999,9,999999999,999.0,0.999,999,99,999.00,999.0,99
2025,1,6,18,60,?9?9?9?9?9?9?9?9?9,11.0,5.1,67,98500,9999,9999,9999,0,0,0,999999,999999,999999,999999,175,4.1,99,99,9999.0,99999,9,999999999,999.0,0.999,999,99,999.00,999.0,99
2025,1,6,19,60,?9?9?9?9?9?9?9?9?9,9.6,4.5,70,98400,9999,9999,9999,0,0,0,999999,999999,999999,999999,155,4.1,99,99,9999.0,99999,9,999999999,999.0,0.999,999,99,999.00,999.0,99
2025,1,6,20,60,?9?9?9?9?9?9?9?9?9,10.5,5.5,71,98400,9999,9999,9999,0,0,0,999999,999999,999999,999999,165,3.9,99,99,9999.0,99999,9,999999999,999.0,0.999,999,99,999.00,999.0,99
2025,1,6,21,60,?9?9?9?9?9?9?9?9?9,11.6,5.5,66,98400,9999,9999,9999,0,0,0,999999,999999,999999,999999,177,4.7,99,99,9999.0,99999,9,999999999,999.0,0.999,999,99,999.00,999.0,99
2025,1,6,22,60,?9?9?9?9?9?9?9?9?9,12.9,6.0,63,98500,9999,9999,9999,0,0,0,999999,999999,999999,999999,216,7.4,99,99,9999.0,99999,9,999999999,999.0,0.999,999,99,999.00,999.0,99
2025,1,6,23,60,?9?9?9?9?9?9?9?9?9,12.4,5.7,64,98600,9999,9999,9999,0,0,0,999999,999999,999999,999999,233,6.1,99,99,9999.0,99999,9,999999999,999.0,0.999,999,99,999.00,999.0,99
2025,1,6,24,60,?9?9?9?9?9?9?9?9?9,11.5,4.6,62,98700,9999,9999,9999,0,0,0,999999,999999,999999,999999,258,6.4,99,99,9999.0,99999,9,999999999,999.0,0.999,999,99,999.00,999.0,99
2025,1,7,1,60,?9?9?9?9?9?9?9?9?9,10.3,3.5,63,98900,9999,9999,9999,0,0,0,999999,999999,999999,999999,223,4.6,99,99,9999.0,99999,9,999999999,999.0,0.999,999,99,999.00,999.0,99
2025,1,7,2,60,?9?9?9?9?9?9?9?9?9,9.9,2.9,62,99000,9999,9999,9999,0,0,0,999999,999999,999999,999999,231,5.3,99,99,9999.0,99999,9,999999999,999.0,0.999,999,99,999.00,999.0,99
2025,1,7,3,60,?9?9?9?9?9?9?9?9?9,9.2,1.8,60,99100,9999,9999,9999,0,0,0,999999,999999,999999,999999,220,5.1,99,99,9999.0,99999,9,999999999,999.0,0.999,999,99,999.00,999.0,99
2025,1,7,4,60,?9?9?9?9?9?9?9?9?9,8.3,2.0,64,99200,9999,9999,9999,0,0,0,999999,999999,999999,999999,211,3.3,99,99,9999.0,99999,9,999999999,999.0,0.999,999,99,999.00,999.0,99
2025,1,7,5,60,?9?9?9?9?9?9?9?9?9,8.3,2.7,68,99200,9999,9999,9999,0,0,0,999999,999999,999999,999999,212,4.2,99,99,9999.0,99999,9,999999999,999.0,0.999,999,99,999.00,999.0,99
2025,1,7,6,60,?9?9?9?9?9?9?9?9?9,8.3,2.4,66,99200,9999,9999,9999,0,0,0,999999,999999,999999,999999,208,5.1,99,99,9999.0,99999,9,999999999,999.0,0.999,999,99,999.00,999.0,99
2025,1,7,7,60,?9?9?9?9?9?9?9?9?9,8.2,2.0,65,99200,9999,9999,9999,0,0,0,999999,999999,999999,999999,212,5.5,99,99,9999.0,99999,9,999999999,999.0,0.999,999,99,999.00,999.0,99
2025,1,7,8,60,?9?9?9?9?9?9?9?9?9,7.8,1.7,65,99200,9999,9999,9999,0,0,0,999999,999999,999999,999999,204,4.1,99,99,9999.0,99999,9,999999999,999.0,0.999,999,99,999.00,999.0,99
2025,1,7,9,60,?9?9?9?9?9?9?9?9?9,7.8,1.4,64,99200,9999,9999,9999,0,0,0,999999,999999,999999,999999,200,4.9,99,99,9999.0,99999,9,999999999,999.0,0.999,999,99,999.00,999.0,99
2025,1,7,10,60,?9?9?9?9?9?9?9?9?9,7.4,1.1,64,99300,9999,9999,9999,22,6,22,999999,999999,999999,999999,208,4.9,99,99,9999.0,99999,9,999999999,999.0,0.999,999,99,999.00,999.0,99
2025,1,7,11,60,?9?9?9?9?9?9?9?9?9,7.7,1.5,65,99300,9999,9999,9999,94,84,80,999999,999999,999999,999999,217,6.4,99,99,9999.0,99999,9,999999999,999.0,0.999,999,99,999.00,999.0,99
2025,1,7,12,60,?9?9?9?9?9?9?9?9?9,7.8,1.4,64,99300,9999,9999,9999,77,7,75,999999,999999,999999,999999,230,6.1,99,99,9999.0,99999,9,999999999,999.0,0.999,999,99,999.00,999.0,99
2025,1,7,13,60,?9?9?9?9?9?9?9?9?9,8.6,1.1,59,99400,9999,9999,9999,127,44,116,999999,999999,999999,999999,232,6.3,99,99,9999.0,99999,9,999999999,999.0,0.999,999,99,999.00,999.0,99
2025,1,7,14,60,?9?9?9?9?9?9?9?9?9,7.8,-0.4,56,99400,9999,9999,9999,78,6,76,999999,999999,999999,999999,243,6.8,99,99,9999.0,99999,9,999999999,999.0,0.999,999,99,999.00,999.0,99
2025,1,7,15,60,?9?9?9?9?9?9?9?9?9,7.6,-0.4,57,99400,9999,9999,9999,25,1,24,999999,999999,999999,999999,230,6.8,99,99,9999.0,99999,9,999999999,999.0,0.999,999,99,999.00,999.0,99
2025,1,7,16,60,?9?9?9?9?9?9?9?9?9,7.6,-0.2,58,99400,9999,9999,9999,27,3,26,999999,999999,999999,999999,231,5.9,99,99,9999.0,99999,9,999999999,999.0,0.999,999,99,999.00,999.0,99
2025,1,7,17,60,?9?9?9?9?9?9?9?9?9,7.1,-0.5,59,99400,9999,9999,9999,13,0,13,999999,999999,999999,999999,212,5.3,99,99,9999.0,99999,9,999999999,999.0,0.999,999,99,999.00,999.0,99
2025,1,7,18,60,?9?9?9?9?9?9?9?9?9,7.1,-0.2,60,99400,9999,9999,9999,0,0,0,999999,999999,999999,999999,223,6.0,99,99,9999.0,99999,9,999999999,999.0,0.999,999,99,999.00,999.0,99
2025,1,7,19,60,?9?9?9?9?9?9?9?9?9,5.9,0.1,66,99400,9999,9999,9999,0,0,0,999999,999999,999999,999999,221,4.8,99,99,9999.0,99999,9,999999999,999.0,0.999,999,99,999.00,999.0,99
2025,1,7,20,60,?9?9?9?9?9?9?9?9?9,3.1,0.2,81,99400,9999,9999,9999,0,0,0,999999,999999,999999,999999,260,6.4,99,99,9999.0,99999,9,999999999,999.0,0.999,999,99,999.00,999.0,99
2025,1,7,21,60,?9?9?9?9?9?9?9?9?9,3.0,1.3,89,99500,9999,9999,9999,0,0,0,999999,999999,999999,999999,236,5.4,99,99,9999.0,99999,9,999999999,999.0,0.999,999,99,999.00,999.0,99
2025,1,7,22,60,?9?9?9?9?9?9?9?9?9,2.5,0.6,87,99500,9999,9999,9999,0,0,0,999999,999999,999999,999999,221,4.5,99,99,9999.0,99999,9,999999999,999.0,0.999,999,99,999.00,999.0,99
2025,1,7,23,60,?9?9?9?9?9?9?9?9?9,2.8,0.7,86,99600,9999,9999,9999,0,0,0,999999,999999,999999,999999,205,3.6,99,99,9999.0,99999,9,999999999,999.0,0.999,999,99,999.00,999.0,99
2025,1,7,24,60,?9?9?9?9?9?9?9?9?9,3.0,0.9,86,99500,9999,9999,9999,0,0,0,999999,999999,999999,999999,227,5.7,99,99,9999.0,99999,9,999999999,999.0,0.999,999,99,999.00,999.0,99
2025,1,8,1,60,?9?9?9?9?9?9?9?9?9,2.3,0.5,88,99500,9999,9999,9999,0,0,0,999999,999999,999999,999999,222,4.9,99,99,9999.0,99999,9,999999999,999.0,0.999,999,99,999.00,999.0,99
2025,1,8,2,60,?9?9?9?9?9?9?9?9?9,1.8,0.5,91,99500,9999,9999,9999,0,0,0,999999,999999,999999,999999,215,5.1,99,99,9999.0,99999,9,999999999,999.0,0.999,999,99,999.00,999.0,99
2025,1,8,3,60,?9?9?9?9?9?9?9?9?9,1.7,0.6,92,99500,9999,9999,9999,0,0,0,999999,999999,999999,999999,224,4.4,99,99,9999.0,99999,9,999999999,999.0,0.999,999,99,999.00,999.0,99
2025,1,8,4,60,?9?9?9?9?9?9?9?9?9,1.8,0.7,92,99600,9999,9999,9999,0,0,0,999999,999999,999999,999999,217,4.0,99,99,9999.0,99999,9,999999999,999.0,0.999,999,99,999.00,999.0,99
2025,1,8,5,60,?9?9?9?9?9?9?9?9?9,1.1,0.0,93,99500,9999,9999,9999,0,0,0,999999,999999,999999,999999,199,3.4,99,99,9999.0,99999,9,999999999,999.0,0.999,999,99,999.00,999.0,99
2025,1,8,6,60,?9?9?9?9?9?9?9?9?9,1.9,0.7,92,99500,9999,9999,9999,0,0,0,999999,999999,999999,999999,210,4.4,99,99,9999.0,99999,9,999999999,999.0,0.999,999,99,999.00,999.0,99
2025,1,8,7,60,?9?9?9?9?9?9?9?9?9,2.1,0.7,90,99500,9999,9999,9999,0,0,0,999999,999999,999999,999999,224,4.6,99,99,9999.0,99999,9,999999999,999.0,0.999,999,99,999.00,999.0,99
2025,1,8,8,60,?9?9?9?9?9?9?9?9?9,1.9,0.3,89,99500,9999,9999,9999,0,0,0,999999,999999,999999,999999,229,4.7,99,99,9999.0,99999,9,999999999,999.0,0.999,999,99,999.00,999.0,99
2025,1,8,9,60,?9?9?9?9?9?9?9?9?9,1.5,-0.1,89,99500,9999,9999,9999,0,0,0,999999,999999,999999,999999,221,4.6,99,99,9999.0,99999,9,999999999,999.0,0.999,999,99,999.00,999.0,99
2025,1,8,10,60,?9?9?9?9?9?9?9?9?9,1.3,-0.3,89,99600,9999,9999,9999,15,2,15,999999,999999,999999,999999,229,4.6,99,99,9999.0,99999,9,999999999,999.0,0.999,999,99,999.00,999.0,99
2025,1,8,11,60,?9?9?9?9?9?9?9?9?9,2.2,0.2,86,99700,9999,9999,9999,97,90,81,999999,999999,999999,999999,220,4.8,99,99,9999.0,99999,9,999999999,999.0,0.999,999,99,999.00,999.0,99
2025,1,8,12,60,?9?9?9?9?9?9?9?9?9,3.1,0.3,82,99700,9999,9999,9999,197,452,90,999999,999999,999999,999999,222,4.8,99,99,9999.0,99999,9,999999999,999.0,0.999,999,99,999.00,999.0,99
2025,1,8,13,60,?9?9?9?9?9?9?9?9?9,4.2,0.6,78,99700,9999,9999,9999,194,285,119,999999,999999,999999,999999,245,5.4,99,99,9999.0,99999,9,999999999,999.0,0.999,999,99,999.00,999.0,99
2025,1,8,14,60,?9?9?9?9?9?9?9?9?9,4.4,-0.1,73,99800,9999,9999,9999,95,12,92,999999,999999,999999,999999,247,5.9,99,99,9999.0,99999,9,999999999,999.0,0.999,999,99,999.00,999.0,99
2025,1,8,15,60,?9?9?9?9?9?9?9?9?9,4.4,-0.6,70,99800,9999,9999,9999,53,4,52,999999,999999,999999,999999,254,6.0,99,99,9999.0,99999,9,999999999,999.0,0.999,999,99,999.00,999.0,99
2025,1,8,16,60,?9?9?9?9?9?9?9?9?9,4.3,-0.9,69,99800,9999,9999,9999,73,117,58,999999,999999,999999,999999,233,4.8,99,99,9999.0,99999,9,999999999,999.0,0.999,999,99,999.00,999.0,99
2025,1,8,17,60,?9?9?9?9?9?9?9?9?9,3.6,-1.4,70,99800,9999,9999,9999,30,0,30,999999,999999,999999,999999,218,4.2,99,99,9999.0,99999,9,999999999,999.0,0.999,999,99,999.00,999.0,99
2025,1,8,18,60,?9?9?9?9?9?9?9?9?9,2.9,-1.8,71,99900,9999,9999,9999,0,0,0,999999,999999,999999,999999,232,4.7,99,99,9999.0,99999,9,999999999,999.0,0.999,999,99,999.00,999.0,99
2025,1,8,19,60,?9?9?9?9?9?9?9?9?9,2.0,-2.2,74,99900,9999,9999,9999,0,0,0,999999,999999,999999,999999,219,3.8,99,99,9999.0,99999,9,999999999,999.0,0.999,999,99,999.00,999.0,99
2025,1,8,20,60,?9?9?9?9?9?9?9?9?9,1.5,-2.0,78,99900,9999,9999,9999,0,0,0,999999,999999,999999,999999,211,3.1,99,99,9999.0,99999,9,999999999,999.0,0.999,999,99,999.00,999.0,99
2025,1,8,21,60,?9?9?9?9?9?9?9?9?9,1.1,-1.6,82,100000,9999,9999,9999,0,0,0,999999,999999,999999,999999,201,3.4,99,99,9999.0,99999,9,999999999,999.0,0.999,999,99,999.00,999.0,99
2025,1,8,22,60,?9?9?9?9?9?9?9?9?9,0.6,-1.6,85,100000,9999,9999,9999,0,0,0,999999,999999,999999,999999,192,2.8,99,99,9999.0,99999,9,999999999,999.0,0.999,999,99,999.00,999.0,99
2025,1,8,23,60,?9?9?9?9?9?9?9?9?9,0.3,-1.6,87,100000,9999,9999,9999,0,0,0,999999,999999,999999,999999,159,1.9,99,99,9999.0,99999,9,999999999,999.0,0.999,999,99,999.00,999.0,99
2025,1,8,24,60,?9?9?9?9?9?9?9?9?9,0.9,-0.9,88,99900,9999,9999,9999,0,0,0,999999,999999,999999,999999,147,2.4,99,99,9999.0,99999,9,999999999,999.0,0.999,999,99,999.00,999.0,99
2025,1,9,1,60,?9?9?9?9?9?9?9?9?9,0.5,-1.3,88,99900,9999,9999,9999,0,0,0,999999,999999,999999,999999,130,2.9,99,99,9999.0,99999,9,999999999,999.0,0.999,999,99,999.00,999.0,99
2025,1,9,2,60,?9?9?9?9?9?9?9?9?9,1.6,-0.5,86,99800,9999,9999,9999,0,0,0,999999,999999,999999,999999,124,2.4,99,99,9999.0,99999,9,999999999,999.0,0.999,999,99,999.00,999.0,99
2025,1,9,3,60,?9?9?9?9?9?9?9?9?9,1.9,-0.5,84,99700,9999,9999,9999,0,0,0,999999,999999,999999,999999,130,2.6,99,99,9999.0,99999,9,999999999,999.0,0.999,999,99,999.00,999.0,99
2025,1,9,4,60,?9?9?9?9?9?9?9?9?9,1.6,-0.2,88,99600,9999,9999,9999,0,0,0,999999,999999,999999,999999,109,1.9,99,99,9999.0,99999,9,999999999,999.0,0.999,999,99,999.00,999.0,99
2025,1,9,5,60,?9?9?9?9?9?9?9?9?9,1.4,0.5,94,99600,9999,9999,9999,0,0,0,999999,999999,999999,999999,71,2.1,99,99,9999.0,99999,9,999999999,999.0,0.999,999,99,999.00,999.0,99
2025,1,9,6,60,?9?9?9?9?9?9?9?9?9,1.5,0.9,96,99500,9999,9999,9999,0,0,0,999999,999999,999999,999999,87,2.4,99,99,9999.0,99999,9,999999999,999.0,0.999,999,99,999.00,999.0,99
2025,1,9,7,60,?9?9?9?9?9?9?9?9?9,1.7,1.0,95,99400,9999,9999,9999,0,0,0,999999,999999,999999,999999,100,2.8,99,99,9999.0,99999,9,999999999,999.0,0.999,999,99,999.00,999.0,99
2025,1,9,8,60,?9?9?9?9?9?9?9?9?9,1.6,1.0,96,99400,9999,9999,9999,0,0,0,999999,999999,999999,999999,83,3.2,99,99,9999.0,99999,9,999999999,999.0,0.999,999,99,999.00,999.0,99
2025,1,9,9,60,?9?9?9?9?9?9?9?9?9,1.7,1.1,96,99300,9999,9999,9999,0,0,0,999999,999999,999999,999999,95,2.7,99,99,9999.0,99999,9,999999999,999.0,0.999,999,99,999.00,999.0,99
2025,1,9,10,60,?9?9?9?9?9?9?9?9?9,1.4,0.8,96,99300,9999,9999,9999,5,0,5,999999,999999,999999,999999,18,1.3,99,99,9999.0,99999,9,999999999,999.0,0.999,999,99,999.00,999.0,99
2025,1,9,11,60,?9?9?9?9?9?9?9?9?9,1.5,0.9,96,99400,9999,9999,9999,52,6,51,999999,999999,999999,999999,319,1.8,99,99,9999.0,99999,9,999999999,999.0,0.999,999,99,999.00,999.0,99
2025,1,9,12,60,?9?9?9?9?9?9?9?9?9,1.6,1.0,96,99400,9999,9999,9999,76,7,74,999999,999999,999999,999999,4,2.7,99,99,9999.0,99999,9,999999999,999.0,0.999,999,99,999.00,999.0,99
2025,1,9,13,60,?9?9?9?9?9?9?9?9?9,1.6,0.8,94,99400,9999,9999,9999,45,2,45,999999,999999,999999,999999,45,2.7,99,99,9999.0,99999,9,999999999,999.0,0.999,999,99,999.00,999.0,99
2025,1,9,14,60,?9?9?9?9?9?9?9?9?9,1.8,0.9,94,99300,9999,9999,9999,39,2,39,999999,999999,999999,999999,81,2.5,99,99,9999.0,99999,9,999999999,999.0,0.999,999,99,999.00,999.0,99
2025,1,9,15,60,?9?9?9?9?9?9?9?9?9,1.7,0.9,94,99200,9999,9999,9999,34,2,34,999999,999999,999999,999999,62,3.1,99,99,9999.0,99999,9,999999999,999.0,0.999,999,99,999.00,999.0,99
2025,1,9,16,60,?9?9?9?9?9?9?9?9?9,1.6,0.9,95,99100,9999,9999,9999,24,2,24,999999,999999,999999,999999,31,3.1,99,99,9999.0,99999,9,999999999,999.0,0.999,999,99,999.00,999.0,99
2025,1,9,17,60,?9?9?9?9?9?9?9?9?9,1.1,0.4,95,99100,9999,9999,9999,12,0,12,999999,999999,999999,999999,19,3.4,99,99,9999.0,99999,9,999999999,999.0,0.999,999,99,999.00,999.0,99
2025,1,9,18,60,?9?9?9?9?9?9?9?9?9,1.0,0.3,95,99000,9999,9999,9999,0,0,0,999999,999999,999999,999999,351,4.2,99,99,9999.0,99999,9,999999999,999.0,0.999,999,99,999.00,999.0,99
2025,1,9,19,60,?9?9?9?9?9?9?9?9?9,0.9,0.2,95,99000,9999,9999,9999,0,0,0,999999,999999,999999,999999,339,5.4,99,99,9999.0,99999,9,999999999,999.0,0.999,999,99,999.00,999.0,99
2025,1,9,20,60,?9?9?9?9?9?9?9?9?9,1.3,0.5,94,99000,9999,9999,9999,0,0,0,999999,999999,999999,999999,329,6.5,99,99,9999.0,99999,9,999999999,999.0,0.999,999,99,999.00,999.0,99
2025,1,9,21,60,?9?9?9?9?9?9?9?9?9,1.1,0.3,94,99100,9999,9999,9999,0,0,0,999999,999999,999999,999999,325,6.3,99,99,9999.0,99999,9,999999999,999.0,0.999,999,99,999.00,999.0,99
2025,1,9,22,60,?9?9?9?9?9?9?9?9?9,1.1,0.3,94,99200,9999,9999,9999,0,0,0,999999,999999,999999,999999,311,6.7,99,99,9999.0,99999,9,999999999,999.0,0.999,999,99,999.00,999.0,99
2025,1,9,23,60,?9?9?9?9?9?9?9?9?9,1.3,0.3,93,99500,9999,9999,9999,0,0,0,999999,999999,999999,999999,300,5.7,99,99,9999.0,99999,9,999999999,999.0,0.999,999,99,999.00,999.0,99
2025,1,9,24,60,?9?9?9?9?9?9?9?9?9,1.2,0.3,94,99600,9999,9999,9999,0,0,0,999999,999999,999999,999999,280,5.2,99,99,9999.0,99999,9,999999999,999.0,0.999,999,99,999.00,999.0,99
2025,1,10,1,60,?9?9?9?9?9?9?9?9?9,1.2,0.4,94,99800,9999,9999,9999,0,0,0,999999,999999,999999,999999,281,5.8,99,99,9999.0,99999,9,999999999,999.0,0.999,999,99,999.00,999.0,99
2025,1,10,2,60,?9?9?9?9?9?9?9?9?9,1.5,0.7,95,99900,9999,9999,9999,0,0,0,999999,999999,999999,999999,274,6.0,99,99,9999.0,99999,9,999999999,999.0,0.999,999,99,999.00,999.0,99
2025,1,10,3,60,?9?9?9?9?9?9?9?9?9,1.6,0.8,95,100000,9999,9999,9999,0,0,0,999999,999999,999999,999999,280,6.3,99,99,9999.0,99999,9,999999999,999.0,0.999,999,99,999.00,999.0,99
2025,1,10,4,60,?9?9?9?9?9?9?9?9?9,1.7,0.9,94,100100,9999,9999,9999,0,0,0,999999,999999,999999,999999,273,6.7,99,99,9999.0,99999,9,999999999,999.0,0.999,999,99,999.00,999.0,99
2025,1,10,5,60,?9?9?9?9?9?9?9?9?9,1.8,0.9,94,100200,9999,9999,9999,0,0,0,999999,999999,999999,999999,272,6.3,99,99,9999.0,99999,9,999999999,999.0,0.999,999,99,999.00,999.0,99
2025,1,10,6,60,?9?9?9?9?9?9?9?9?9,1.9,0.9,93,100300,9999,9999,9999,0,0,0,999999,999999,999999,999999,281,6.6,99,99,9999.0,99999,9,999999999,999.0,0.999,999,99,999.00,999.0,99
2025,1,10,7,60,?9?9?9?9?9?9?9?9?9,1.8,0.7,92,100300,9999,9999,9999,0,0,0,999999,999999,999999,999999,272,6.6,99,99,9999.0,99999,9,999999999,999.0,0.999,999,99,999.00,999.0,99
2025,1,10,8,60,?9?9?9?9?9?9?9?9?9,1.9,0.7,92,100400,9999,9999,9999,0,0,0,999999,999999,999999,999999,271,5.3,99,99,9999.0,99999,9,999999999,999.0,0.999,999,99,999.00,999.0,99
2025,1,10,9,60,?9?9?9?9?9?9?9?9?9,1.8,0.6,92,100400,9999,9999,9999,0,0,0,999999,999999,999999,999999,243,5.1,99,99,9999.0,99999,9,999999999,999.0,0.999,999,99,999.00,999.0,99
2025,1,10,10,60,?9?9?9?9?9?9?9?9?9,1.9,0.5,91,100500,9999,9999,9999,11,1,11,999999,999999,999999,999999,250,4.7,99,99,9999.0,99999,9,999999999,999.0,0.999,999,99,999.00,999.0,99
2025,1,10,11,60,?9?9?9?9?9?9?9?9?9,1.7,0.4,91,100500,9999,9999,9999,50,5,49,999999,999999,999999,999999,242,5.2,99,99,9999.0,99999,9,999999999,999.0,0.999,999,99,999.00,999.0,99
2025,1,10,12,60,?9?9?9?9?9?9?9?9?9,1.5,0.5,93,100600,9999,9999,9999,41,2,40,999999,999999,999999,999999,251,4.9,99,99,9999.0,99999,9,999999999,999.0,0.999,999,99,999.00,999.0,99
2025,1,10,13,60,?9?9?9?9?9?9?9?9?9,1.3,0.4,94,100600,9999,9999,9999,41,1,41,999999,999999,999999,999999,250,4.6,99,99,9999.0,99999,9,999999999,999.0,0.999,999,99,999.00,999.0,99
2025,1,10,14,60,?9?9?9?9?9?9?9?9?9,1.1,0.4,95,100500,9999,9999,9999,61,4,60,999999,999999,999999,999999,254,4.3,99,99,9999.0,99999,9,999999999,999.0,0.999,999,99,999.00,999.0,99
2025,1,10,15,60,?9?9?9?9?9?9?9?9?9,1.4,0.8,96,100500,9999,9999,9999,44,3,43,999999,999999,999999,999999,261,4.7,99,99,9999.0,99999,9,999999999,999.0,0.999,999,99,999.00,999.0,99
2025,1,10,16,60,?9?9?9?9?9?9?9?9?9,1.1,0.5,96,100500,9999,9999,9999,26,3,25,999999,999999,999999,999999,265,4.4,99,99,9999.0,99999,9,999999999,999.0,0.999,999,99,999.00,999.0,99
2025,1,10,17,60,?9?9?9?9?9?9?9?9?9,1.1,0.6,96,100600,9999,9999,9999,5,0,5,999999,999999,999999,999999,277,4.7,99,99,9999.0,99999,9,999999999,999.0,0.999,999,99,999.00,999.0,99
2025,1,10,18,60,?9?9?9?9?9?9?9?9?9,1.1,0.6,96,100600,9999,9999,9999,0,0,0,999999,999999,999999,999999,272,4.6,99,99,9999.0,99999,9,999999999,999.0,0.999,999,99,999.00,999.0,99
2025,1,10,19,60,?9?9?9?9?9?9?9?9?9,1.8,1.2,96,100600,9999,9999,9999,0,0,0,999999,999999,999999,999999,286,5.4,99,99,9999.0,99999,9,999999999,999.0,0.999,999,99,999.00,999.0,99
2025,1,10,20,60,?9?9?9?9?9?9?9?9?9,1.7,1.0,95,100700,9999,9999,9999,0,0,0,999999,999999,999999,999999,281,4.3,99,99,9999.0,99999,9,999999999,999.0,0.999,999,99,999.00,999.0,99
2025,1,10,21,60,?9?9?9?9?9?9?9?9?9,2.0,1.2,94,100700,9999,9999,9999,0,0,0,999999,999999,999999,999999,286,5.1,99,99,9999.0,99999,9,999999999,999.0,0.999,999,99,999.00,999.0,99
2025,1,10,22,60,?9?9?9?9?9?9?9?9?9,1.8,0.8,93,100800,9999,9999,9999,0,0,0,999999,999999,999999,999999,282,4.8,99,99,9999.0,99999,9,999999999,999.0,0.999,999,99,999.00,999.0,99
2025,1,10,23,60,?9?9?9?9?9?9?9?9?9,1.5,0.5,93,100800,9999,9999,9999,0,0,0,999999,999999,999999,999999,271,5.0,99,99,9999.0,99999,9,999999999,999.0,0.999,999,99,999.00,999.0,99
2025,1,10,24,60,?9?9?9?9?9?9?9?9?9,1.6,0.4,92,100800,9999,9999,9999,0,0,0,999999,999999,999999,999999,282,6.2,99,99,9999.0,99999,9,999999999,999.0,0.999,999,99,999.00,999.0,99
2025,1,11,1,60,?9?9?9?9?9?9?9?9?9,1.4,0.1,91,100800,9999,9999,9999,0,0,0,999999,999999,999999,999999,278,5.2,99,99,9999.0,99999,9,999999999,999.0,0.999,999,99,999.00,999.0,99
2025,1,11,2,60,?9?9?9?9?9?9?9?9?9,1.2,-0.2,91,100900,9999,9999,9999,0,0,0,999999,999999,999999,999999,283,5.4,99,99,9999.0,99999,9,999999999,999.0,0.999,999,99,999.00,999.0,99
2025,1,11,3,60,?9?9?9?9?9?9?9?9?9,1.0,-0.5,90,100900,9999,9999,9999,0,0,0,999999,999999,999999,999999,292,5.7,99,99,9999.0,99999,9,999999999,999.0,0.999,999,99,999.00,999.0,99
2025,1,11,4,60,?9?9?9?9?9?9?9?9?9,1.0,-0.6,89,100900,9999,9999,9999,0,0,0,999999,999999,999999,999999,288,6.1,99,99,9999.0,99999,9,999999999,999.0,0.999,999,99,999.00,999.0,99
2025,1,11,5,60,?9?9?9?9?9?9?9?9?9,0.9,-0.8,88,100900,9999,9999,9999,0,0,0,999999,999999,999999,999999,287,5.6,99,99,9999.0,99999,9,999999999,999.0,0.999,999,99,999.00,999.0,99
2025,1,11,6,60,?9?9?9?9?9?9?9?9?9,1.0,-1.0,86,100900,9999,9999,9999,0,0,0,999999,999999,999999,999999,289,6.4,99,99,9999.0,99999,9,999999999,999.0,0.999,999,99,999.00,999.0,99
2025,1,11,7,60,?9?9?9?9?9?9?9?9?9,0.9,-1.2,86,100900,9999,9999,9999,0,0,0,999999,999999,999999,999999,291,7.1,99,99,9999.0,99999,9,999999999,999.0,0.999,999,99,999.00,999.0,99
2025,1,11,8,60,?9?9?9?9?9?9?9?9?9,0.6,-1.3,87,101000,9999,9999,9999,0,0,0,999999,999999,999999,999999,280,6.9,99,99,9999.0,99999,9,999999999,999.0,0.999,999,99,999.00,999.0,99
2025,1,11,9,60,?9?9?9?9?9?9?9?9?9,0.6,-1.7,85,101000,9999,9999,9999,0,0,0,999999,999999,999999,999999,290,7.7,99,99,9999.0,99999,9,999999999,999.0,0.999,999,99,999.00,999.0,99
2025,1,11,10,60,?9?9?9?9?9?9?9?9?9,0.4,-2.5,81,101000,9999,9999,9999,8,1,8,999999,999999,999999,999999,281,7.6,99,99,9999.0,99999,9,999999999,999.0,0.999,999,99,999.00,999.0,99
2025,1,11,11,60,?9?9?9?9?9?9?9?9?9,0.2,-2.8,80,101000,9999,9999,9999,70,16,67,999999,999999,999999,999999,290,8.2,99,99,9999.0,99999,9,999999999,999.0,0.999,999,99,999.00,999.0,99
2025,1,11,12,60,?9?9?9?9?9?9?9?9?9,0.5,-2.6,80,101100,9999,9999,9999,115,39,106,999999,999999,999999,999999,288,8.5,99,99,9999.0,99999,9,999999999,999.0,0.999,999,99,999.00,999.0,99
2025,1,11,13,60,?9?9?9?9?9?9?9?9?9,0.7,-2.6,78,101100,9999,9999,9999,122,29,114,999999,999999,999999,999999,288,8.6,99,99,9999.0,99999,9,999999999,999.0,0.999,999,99,999.00,999.0,99
2025,1,11,14,60,?9?9?9?9?9?9?9?9?9,0.6,-2.8,78,101100,9999,9999,9999,60,3,59,999999,999999,999999,999999,289,8.7,99,99,9999.0,99999,9,999999999,999.0,0.999,999,99,999.00,999.0,99
2025,1,11,15,60,?9?9?9?9?9?9?9?9?9,0.9,-2.8,76,101000,9999,9999,9999,66,6,65,999999,999999,999999,999999,290,9.5,99,99,9999.0,99999,9,999999999,999.0,0.999,999,99,999.00,999.0,99
2025,1,11,16,60,?9?9?9?9?9?9?9?9?9,1.1,-2.9,75,101000,9999,9999,9999,68,61,60,999999,999999,999999,999999,290,8.2,99,99,9999.0,99999,9,999999999,999.0,0.999,999,99,999.00,999.0,99
2025,1,11,17,60,?9?9?9?9?9?9?9?9?9,1.3,-2.8,74,101000,9999,9999,9999,10,0,10,999999,999999,999999,999999,298,9.1,99,99,9999.0,99999,9,999999999,999.0,0.999,999,99,999.00,999.0,99
2025,1,11,18,60,?9?9?9?9?9?9?9?9?9,1.4,-2.8,74,101100,9999,9999,9999,0,0,0,999999,999999,999999,999999,298,8.3,99,99,9999.0,99999,9,999999999,999.0,0.999,999,99,999.00,999.0,99
2025,1,11,19,60,?9?9?9?9?9?9?9?9?9,1.3,-2.7,75,101200,9999,9999,9999,0,0,0,999999,999999,999999,999999,299,8.4,99,99,9999.0,99999,9,999999999,999.0,0.999,999,99,999.00,999.0,99
2025,1,11,20,60,?9?9?9?9?9?9?9?9?9,0.9,-2.4,79,101300,9999,9999,9999,0,0,0,999999,999999,999999,999999,299,7.6,99,99,9999.0,99999,9,999999999,999.0,0.999,999,99,999.00,999.0,99
2025,1,11,21,60,?9?9?9?9?9?9?9?9?9,0.9,-1.7,83,101400,9999,9999,9999,0,0,0,999999,999999,999999,999999,298,6.7,99,99,9999.0,99999,9,999999999,999.0,0.999,999,99,999.00,999.0,99
2025,1,11,22,60,?9?9?9?9?9?9?9?9?9,0.8,-1.4,85,101500,9999,9999,9999,0,0,0,999999,999999,999999,999999,291,5.5,99,99,9999.0,99999,9,999999999,999.0,0.999,999,99,999.00,999.0,99
2025,1,11,23,60,?9?9?9?9?9?9?9?9?9,1.1,-1.2,85,101500,9999,9999,9999,0,0,0,999999,999999,999999,999999,291,5.2,99,99,9999.0,99999,9,999999999,999.0,0.999,999,99,999.00,999.0,99
2025,1,11,24,60,?9?9?9?9?9?9?9?9?9,1.8,-1.5,79,101600,9999,9999,9999,0,0,0,999999,999999,999999,999999,317,7.2,99,99,9999.0,99999,9,999999999,999.0,0.999,999,99,999.00,999.0,99
2025,1,12,1,60,?9?9?9?9?9?9?9?9?9,1.7,-2.3,75,101700,9999,9999,9999,0,0,0,999999,999999,999999,999999,319,6.3,99,99,9999.0,99999,9,999999999,999.0,0.999,999,99,999.00,999.0,99
2025,1,12,2,60,?9?9?9?9?9?9?9?9?9,1.7,-2.2,76,101800,9999,9999,9999,0,0,0,999999,999999,999999,999999,316,5.9,99,99,9999.0,99999,9,999999999,999.0,0.999,999,99,999.00,999.0,99
2025,1,12,3,60,?9?9?9?9?9?9?9?9?9,1.5,-2.1,77,101800,9999,9999,9999,0,0,0,999999,999999,999999,999999,317,5.1,99,99,9999.0,99999,9,999999999,999.0,0.999,999,99,999.00,999.0,99
2025,1,12,4,60,?9?9?9?9?9?9?9?9?9,1.6,-1.9,78,101900,9999,9999,9999,0,0,0,999999,999999,999999,999999,316,5.6,99,99,9999.0,99999,9,999999999,999.0,0.999,999,99,999.00,999.0,99
2025,1,12,5,60,?9?9?9?9?9?9?9?9?9,1.4,-2.1,78,102000,9999,9999,9999,0,0,0,999999,999999,999999,999999,317,5.3,99,99,9999.0,99999,9,999999999,999.0,0.999,999,99,999.00,999.0,99
2025,1,12,6,60,?9?9?9?9?9?9?9?9?9,1.3,-2.1,78,102100,9999,9999,9999,0,0,0,999999,999999,999999,999999,326,5.3,99,99,9999.0,99999,9,999999999,999.0,0.999,999,99,999.00,999.0,99
2025,1,12,7,60,?9?9?9?9?9?9?9?9?9,1.1,-2.3,78,102100,9999,9999,9999,0,0,0,999999,999999,999999,999999,321,6.2,99,99,9999.0,99999,9,999999999,999.0,0.999,999,99,999.00,999.0,99
2025,1,12,8,60,?9?9?9?9?9?9?9?9?9,1.0,-2.6,77,102200,9999,9999,9999,0,0,0,999999,999999,999999,999999,318,5.4,99,99,9999.0,99999,9,999999999,999.0,0.999,999,99,999.00,999.0,99
2025,1,12,9,60,?9?9?9?9?9?9?9?9?9,0.7,-3.0,76,102300,9999,9999,9999,0,0,0,999999,999999,999999,999999,317,5.7,99,99,9999.0,99999,9,999999999,999.0,0.999,999,99,999.00,999.0,99
2025,1,12,10,60,?9?9?9?9?9?9?9?9?9,0.4,-3.2,77,102400,9999,9999,9999,10,1,10,999999,999999,999999,999999,318,5.7,99,99,9999.0,99999,9,999999999,999.0,0.999,999,99,999.00,999.0,99
2025,1,12,11,60,?9?9?9?9?9?9?9?9?9,0.5,-3.3,76,102500,9999,9999,9999,51,5,50,999999,999999,999999,999999,330,4.9,99,99,9999.0,99999,9,999999999,999.0,0.999,999,99,999.00,999.0,99
2025,1,12,12,60,?9?9?9?9?9?9?9?9?9,0.9,-3.3,74,102600,9999,9999,9999,126,57,112,999999,999999,999999,999999,322,4.8,99,99,9999.0,99999,9,999999999,999.0,0.999,999,99,999.00,999.0,99
2025,1,12,13,60,?9?9?9?9?9?9?9?9?9,1.5,-3.0,72,102700,9999,9999,9999,209,332,119,999999,999999,999999,999999,307,4.2,99,99,9999.0,99999,9,999999999,999.0,0.999,999,99,999.00,999.0,99
2025,1,12,14,60,?9?9?9?9?9?9?9?9?9,1.8,-2.9,71,102700,9999,9999,9999,186,242,123,999999,999999,999999,999999,316,5.3,99,99,9999.0,99999,9,999999999,999.0,0.999,999,99,999.00,999.0,99
2025,1,12,15,60,?9?9?9?9?9?9?9?9?9,2.0,-2.6,72,102800,9999,9999,9999,117,74,101,999999,999999,999999,999999,314,4.1,99,99,9999.0,99999,9,999999999,999.0,0.999,999,99,999.00,999.0,99
2025,1,12,16,60,?9?9?9?9?9?9?9?9?9,2.1,-2.1,74,102800,9999,9999,9999,45,8,44,999999,999999,999999,999999,312,4.3,99,99,9999.0,99999,9,999999999,999.0,0.999,999,99,999.00,999.0,99
2025,1,12,17,60,?9?9?9?9?9?9?9?9?9,1.7,-2.4,74,102900,9999,9999,9999,20,0,20,999999,999999,999999,999999,323,4.1,99,99,9999.0,99999,9,999999999,999.0,0.999,999,99,999.00,999.0,99
2025,1,12,18,60,?9?9?9?9?9?9?9?9?9,1.9,-2.2,74,103000,9999,9999,9999,0,0,0,999999,999999,999999,999999,325,3.5,99,99,9999.0,99999,9,999999999,999.0,0.999,999,99,999.00,999.0,99
2025,1,12,19,60,?9?9?9?9?9?9?9?9?9,1.7,-2.4,74,103100,9999,9999,9999,0,0,0,999999,999999,999999,999999,331,3.9,99,99,9999.0,99999,9,999999999,999.0,0.999,999,99,999.00,999.0,99
2025,1,12,20,60,?9?9?9?9?9?9?9?9?9,1.7,-2.7,72,103100,9999,9999,9999,0,0,0,999999,999999,999999,999999,349,3.9,99,99,9999.0,99999,9,999999999,999.0,0.999,999,99,999.00,999.0,99
2025,1,12,21,60,?9?9?9?9?9?9?9?9?9,1.1,-3.3,73,103200,9999,9999,9999,0,0,0,999999,999999,999999,999999,21,3.7,99,99,9999.0,99999,9,999999999,999.0,0.999,999,99,999.00,999.0,99
2025,1,12,22,60,?9?9?9?9?9?9?9?9?9,0.6,-3.6,74,103300,9999,9999,9999,0,0,0,999999,999999,999999,999999,39,3.9,99,99,9999.0,99999,9,999999999,999.0,0.999,999,99,999.00,999.0,99
2025,1,12,23,60,?9?9?9?9?9?9?9?9?9,0.2,-3.9,74,103400,9999,9999,9999,0,0,0,999999,999999,999999,999999,8,2.4,99,99,9999.0,99999,9,999999999,999.0,0.999,999,99,999.00,999.0,99
2025,1,12,24,60,?9?9?9?9?9?9?9?9?9,-0.1,-4.2,74,103500,9999,9999,9999,0,0,0,999999,999999,999999,999999,3,1.9,99,99,9999.0,99999,9,999999999,999.0,0.999,999,99,999.00,999.0,99
2025,1,13,1,60,?9?9?9?9?9?9?9?9?9,-0.2,-4.3,74,103600,9999,9999,9999,0,0,0,999999,999999,999999,999999,15,2.1,99,99,9999.0,99999,9,999999999,999.0,0.999,999,99,999.00,999.0,99
2025,1,13,2,60,?9?9?9?9?9?9?9?9?9,-0.2,-4.2,74,103600,9999,9999,9999,0,0,0,999999,999999,999999,999999,340,0.9,99,99,9999.0,99999,9,999999999,999.0,0.999,999,99,999.00,999.0,99
2025,1,13,3,60,?9?9?9?9?9?9?9?9?9,-0.2,-4.2,74,103600,9999,9999,9999,0,0,0,999999,999999,999999,999999,84,1.7,99,99,9999.0,99999,9,999999999,999.0,0.999,999,99,999.00,999.0,99
2025,1,13,4,60,?9?9?9?9?9?9?9?9?9,-0.2,-4.2,74,103700,9999,9999,9999,0,0,0,999999,999999,999999,999999,214,1.0,99,99,9999.0,99999,9,999999999,999.0,0.999,999,99,999.00,999.0,99
2025,1,13,5,60,?9?9?9?9?9?9?9?9?9,-1.0,-4.6,77,103700,9999,9999,9999,0,0,0,999999,999999,999999,999999,220,1.5,99,99,9999.0,99999,9,999999999,999.0,0.999,999,99,999.00,999.0,99
2025,1,13,6,60,?9?9?9?9?9?9?9?9?9,-1.9,-4.7,81,103700,9999,9999,9999,0,0,0,999999,999999,999999,999999,240,1.6,99,99,9999.0,99999,9,999999999,999.0,0.999,999,99,999.00,999.0,99
2025,1,13,7,60,?9?9?9?9?9?9?9?9?9,-2.4,-4.7,84,103700,9999,9999,9999,0,0,0,999999,999999,999999,999999,271,2.2,99,99,9999.0,99999,9,999999999,999.0,0.999,999,99,999.00,999.0,99
2025,1,13,8,60,?9?9?9?9?9?9?9?9?9,-3.1,-5.0,86,103800,9999,9999,9999,0,0,0,999999,999999,999999,999999,260,1.4,99,99,9999.0,99999,9,999999999,999.0,0.999,999,99,999.00,999.0,99
2025,1,13,9,60,?9?9?9?9?9?9?9?9?9,-3.4,-5.0,89,103800,9999,9999,9999,0,0,0,999999,999999,999999,999999,299,1.3,99,99,9999.0,99999,9,999999999,999.0,0.999,999,99,999.00,999.0,99
2025,1,13,10,60,?9?9?9?9?9?9?9?9?9,-3.1,-4.6,89,103900,9999,9999,9999,22,4,21,999999,999999,999999,999999,277,1.5,99,99,9999.0,99999,9,999999999,999.0,0.999,999,99,999.00,999.0,99
2025,1,13,11,60,?9?9?9?9?9?9?9?9?9,-1.2,-3.2,86,103900,9999,9999,9999,110,127,87,999999,999999,999999,999999,260,2.1,99,99,9999.0,99999,9,999999999,999.0,0.999,999,99,999.00,999.0,99
2025,1,13,12,60,?9?9?9?9?9?9?9?9?9,-0.2,-3.2,80,103900,9999,9999,9999,211,487,91,999999,999999,999999,999999,264,3.0,99,99,9999.0,99999,9,999999999,999.0,0.999,999,99,999.00,999.0,99
2025,1,13,13,60,?9?9?9?9?9?9?9?9?9,0.5,-3.5,74,104000,9999,9999,9999,255,627,83,999999,999999,999999,999999,231,3.3,99,99,9999.0,99999,9,999999999,999.0,0.999,999,99,999.00,999.0,99
2025,1,13,14,60,?9?9?9?9?9?9?9?9?9,0.8,-3.8,71,103900,9999,9999,9999,257,705,70,999999,999999,999999,999999,218,5.1,99,99,9999.0,99999,9,999999999,999.0,0.999,999,99,999.00,999.0,99
2025,1,13,15,60,?9?9?9?9?9?9?9?9?9,1.4,-3.7,69,103800,9999,9999,9999,225,816,46,999999,999999,999999,999999,232,4.5,99,99,9999.0,99999,9,999999999,999.0,0.999,999,99,999.00,999.0,99
2025,1,13,16,60,?9?9?9?9?9?9?9?9?9,1.3,-4.0,68,103700,9999,9999,9999,122,553,46,999999,999999,999999,999999,224,3.6,99,99,9999.0,99999,9,999999999,999.0,0.999,999,99,999.00,999.0,99
2025,1,13,17,60,?9?9?9?9?9?9?9?9?9,1.1,-3.9,69,103700,9999,9999,9999,37,0,37,999999,999999,999999,999999,250,3.5,99,99,9999.0,99999,9,999999999,999.0,0.999,999,99,999.00,999.0,99
2025,1,13,18,60,?9?9?9?9?9?9?9?9?9,0.4,-3.9,73,103700,9999,9999,9999,0,0,0,999999,999999,999999,999999,273,2.7,99,99,9999.0,99999,9,999999999,999.0,0.999,999,99,999.00,999.0,99
2025,1,13,19,60,?9?9?9?9?9?9?9?9?9,0.5,-3.2,76,103700,9999,9999,9999,0,0,0,999999,999999,999999,999999,207,2.5,99,99,9999.0,99999,9,999999999,999.0,0.999,999,99,999.00,999.0,99
2025,1,13,20,60,?9?9?9?9?9?9?9?9?9,0.5,-3.1,77,103600,9999,9999,9999,0,0,0,999999,999999,999999,999999,220,2.6,99,99,9999.0,99999,9,999999999,999.0,0.999,999,99,999.00,999.0,99
2025,1,13,21,60,?9?9?9?9?9?9?9?9?9,0.4,-3.0,78,103600,9999,9999,9999,0,0,0,999999,999999,999999,999999,207,2.2,99,99,9999.0,99999,9,999999999,999.0,0.999,999,99,999.00,999.0,99
2025,1,13,22,60,?9?9?9?9?9?9?9?9?9,0.5,-2.8,79,103500,9999,9999,9999,0,0,0,999999,999999,999999,999999,217,2.7,99,99,9999.0,99999,9,999999999,999.0,0.999,999,99,999.00,999.0,99
2025,1,13,23,60,?9?9?9?9?9?9?9?9?9,0.2,-2.9,80,103500,9999,9999,9999,0,0,0,999999,999999,999999,999999,213,3.0,99,99,9999.0,99999,9,999999999,999.0,0.999,999,99,999.00,999.0,99
2025,1,13,24,60,?9?9?9?9?9?9?9?9?9,0.0,-2.9,81,103500,9999,9999,9999,0,0,0,999999,999999,999999,999999,204,3.0,99,99,9999.0,99999,9,999999999,999.0,0.999,999,99,999.00,999.0,99
2025,1,14,1,60,?9?9?9?9?9?9?9?9?9,-0.2,-3.0,81,103400,9999,9999,9999,0,0,0,999999,999999,999999,999999,221,3.0,99,99,9999.0,99999,9,999999999,999.0,0.999,999,99,999.00,999.0,99
2025,1,14,2,60,?9?9?9?9?9?9?9?9?9,-0.9,-3.5,82,103300,9999,9999,9999,0,0,0,999999,999999,999999,999999,234,3.1,99,99,9999.0,99999,9,999999999,999.0,0.999,999,99,999.00,999.0,99
2025,1,14,3,60,?9?9?9?9?9?9?9?9?9,-1.1,-3.5,84,103200,9999,9999,9999,0,0,0,999999,999999,999999,999999,223,2.8,99,99,9999.0,99999,9,999999999,999.0,0.999,999,99,999.00,999.0,99
2025,1,14,4,60,?9?9?9?9?9?9?9?9?9,-1.8,-4.0,85,103200,9999,9999,9999,0,0,0,999999,999999,999999,999999,264,2.3,99,99,9999.0,99999,9,999999999,999.0,0.999,999,99,999.00,999.0,99
2025,1,14,5,60,?9?9?9?9?9?9?9?9?9,-1.4,-3.5,86,103200,9999,9999,9999,0,0,0,999999,999999,999999,999999,201,2.4,99,99,9999.0,99999,9,999999999,999.0,0.999,999,99,999.00,999.0,99
2025,1,14,6,60,?9?9?9?9?9?9?9?9?9,-1.0,-3.4,84,103100,9999,9999,9999,0,0,0,999999,999999,999999,999999,214,3.0,99,99,9999.0,99999,9,999999999,999.0,0.999,999,99,999.00,999.0,99
2025,1,14,7,60,?9?9?9?9?9?9?9?9?9,-1.3,-3.9,82,103000,9999,9999,9999,0,0,0,999999,999999,999999,999999,233,3.0,99,99,9999.0,99999,9,999999999,999.0,0.999,999,99,999.00,999.0,99
2025,1,14,8,60,?9?9?9?9?9?9?9?9?9,-1.1,-3.7,82,103000,9999,9999,9999,0,0,0,999999,999999,999999,999999,221,3.2,99,99,9999.0,99999,9,999999999,999.0,0.999,999,99,999.00,999.0,99
2025,1,14,9,60,?9?9?9?9?9?9?9?9?9,-1.3,-4.0,82,102900,9999,9999,9999,0,0,0,999999,999999,999999,999999,237,3.1,99,99,9999.0,99999,9,999999999,999.0,0.999,999,99,999.00,999.0,99
2025,1,14,10,60,?9?9?9?9?9?9?9?9?9,-1.1,-3.9,81,102900,9999,9999,9999,14,2,14,999999,999999,999999,999999,236,2.9,99,99,9999.0,99999,9,999999999,999.0,0.999,999,99,999.00,999.0,99
2025,1,14,11,60,?9?9?9?9?9?9?9?9?9,-0.4,-3.9,78,102900,9999,9999,9999,56,6,55,999999,999999,999999,999999,226,3.8,99,99,9999.0,99999,9,999999999,999.0,0.999,999,99,999.00,999.0,99
2025,1,14,12,60,?9?9?9?9?9?9?9?9?9,0.0,-4.2,74,102800,9999,9999,9999,98,15,94,999999,999999,999999,999999,235,3.9,99,99,9999.0,99999,9,999999999,999.0,0.999,999,99,999.00,999.0,99
2025,1,14,13,60,?9?9?9?9?9?9?9?9?9,1.0,-4.1,69,102700,9999,9999,9999,113,17,108,999999,999999,999999,999999,236,3.5,99,99,9999.0,99999,9,999999999,999.0,0.999,999,99,999.00,999.0,99
2025,1,14,14,60,?9?9?9?9?9?9?9?9?9,1.8,-4.4,63,102600,9999,9999,9999,89,7,87,999999,999999,999999,999999,231,3.6,99,99,9999.0,99999,9,999999999,999.0,0.999,999,99,999.00,999.0,99
2025,1,14,15,60,?9?9?9?9?9?9?9?9?9,2.4,-4.6,60,102500,9999,9999,9999,53,4,53,999999,999999,999999,999999,244,3.3,99,99,9999.0,99999,9,999999999,999.0,0.999,999,99,999.00,999.0,99
2025,1,14,16,60,?9?9?9?9?9?9?9?9?9,2.7,-4.8,58,102400,9999,9999,9999,25,2,25,999999,999999,999999,999999,236,3.4,99,99,9999.0,99999,9,999999999,999.0,0.999,999,99,999.00,999.0,99
2025,1,14,17,60,?9?9?9?9?9?9?9?9?9,2.8,-4.7,58,102400,9999,9999,9999,9,0,9,999999,999999,999999,999999,232,3.5,99,99,9999.0,99999,9,999999999,999.0,0.999,999,99,999.00,999.0,99
2025,1,14,18,60,?9?9?9?9?9?9?9?9?9,3.1,-4.0,60,102300,9999,9999,9999,0,0,0,999999,999999,999999,999999,245,3.4,99,99,9999.0,99999,9,999999999,999.0,0.999,999,99,999.00,999.0,99
2025,1,14,19,60,?9?9?9?9?9?9?9?9?9,2.9,-2.8,66,102300,9999,9999,9999,0,0,0,999999,999999,999999,999999,285,6.0,99,99,9999.0,99999,9,999999999,999.0,0.999,999,99,999.00,999.0,99
2025,1,14,20,60,?9?9?9?9?9?9?9?9?9,1.8,-0.8,83,102300,9999,9999,9999,0,0,0,999999,999999,999999,999999,262,4.3,99,99,9999.0,99999,9,999999999,999.0,0.999,999,99,999.00,999.0,99
2025,1,14,21,60,?9?9?9?9?9?9?9?9?9,2.1,1.2,94,102300,9999,9999,9999,0,0,0,999999,999999,999999,999999,263,4.5,99,99,9999.0,99999,9,999999999,999.0,0.999,999,99,999.00,999.0,99
2025,1,14,22,60,?9?9?9?9?9?9?9?9?9,2.4,1.7,95,102200,9999,9999,9999,0,0,0,999999,999999,999999,999999,269,4.6,99,99,9999.0,99999,9,999999999,999.0,0.999,999,99,999.00,999.0,99
2025,1,14,23,60,?9?9?9?9?9?9?9?9?9,2.5,2.0,96,102200,9999,9999,9999,0,0,0,999999,999999,999999,999999,275,5.1,99,99,9999.0,99999,9,999999999,999.0,0.999,999,99,999.00,999.0,99
2025,1,14,24,60,?9?9?9?9?9?9?9?9?9,2.6,2.2,97,102200,9999,9999,9999,0,0,0,999999,999999,999999,999999,278,4.4,99,99,9999.0,99999,9,999999999,999.0,0.999,999,99,999.00,999.0,99
2025,1,15,1,60,?9?9?9?9?9?9?9?9?9,2.7,2.3,98,102200,9999,9999,9999,0,0,0,999999,999999,999999,999999,263,4.7,99,99,9999.0,99999,9,999999999,999.0,0.999,999,99,999.00,999.0,99
2025,1,15,2,60,?9?9?9?9?9?9?9?9?9,2.9,2.6,98,102100,9999,9999,9999,0,0,0,999999,999999,999999,999999,280,4.6,99,99,9999.0,99999,9,999999999,999.0,0.999,999,99,999.00,999.0,99
2025,1,15,3,60,?9?9?9?9?9?9?9?9?9,3.1,2.9,98,102100,9999,9999,9999,0,0,0,999999,999999,999999,999999,297,4.6,99,99,9999.0,99999,9,999999999,999.0,0.999,999,99,999.00,999.0,99
2025,1,15,4,60,?9?9?9?9?9?9?9?9?9,3.4,3.2,98,102100,9999,9999,9999,0,0,0,999999,999999,999999,999999,281,4.4,99,99,9999.0,99999,9,999999999,999.0,0.999,999,99,999.00,999.0,99
2025,1,15,5,60,?9?9?9?9?9?9?9?9?9,3.6,3.4,98,102100,9999,9999,9999,0,0,0,999999,999999,999999,999999,275,4.0,99,99,9999.0,99999,9,999999999,999.0,0.999,999,99,999.00,999.0,99
2025,1,15,6,60,?9?9?9?9?9?9?9?9?9,4.1,3.8,98,102100,9999,9999,9999,0,0,0,999999,999999,999999,999999,285,4.4,99,99,9999.0,99999,9,999999999,999.0,0.999,999,99,999.00,999.0,99
2025,1,15,7,60,?9?9?9?9?9?9?9?9?9,4.5,4.1,97,102100,9999,9999,9999,0,0,0,999999,999999,999999,999999,294,4.0,99,99,9999.0,99999,9,999999999,999.0,0.999,999,99,999.00,999.0,99
2025,1,15,8,60,?9?9?9?9?9?9?9?9?9,4.7,4.3,97,102200,9999,9999,9999,0,0,0,999999,999999,999999,999999,301,3.7,99,99,9999.0,99999,9,999999999,999.0,0.999,999,99,999.00,999.0,99
2025,1,15,9,60,?9?9?9?9?9?9?9?9?9,4.9,4.4,97,102200,9999,9999,9999,0,0,0,999999,999999,999999,999999,290,3.1,99,99,9999.0,99999,9,999999999,999.0,0.999,999,99,999.00,999.0,99
2025,1,15,10,60,?9?9?9?9?9?9?9?9?9,5.1,4.6,96,102200,9999,9999,9999,14,2,14,999999,999999,999999,999999,304,3.5,99,99,9999.0,99999,9,999999999,999.0,0.999,999,99,999.00,999.0,99
2025,1,15,11,60,?9?9?9?9?9?9?9?9?9,5.6,4.9,96,102300,9999,9999,9999,56,6,55,999999,999999,999999,999999,311,3.1,99,99,9999.0,99999,9,999999999,999.0,0.999,999,99,999.00,999.0,99
2025,1,15,12,60,?9?9?9?9?9?9?9?9?9,5.8,5.0,95,102400,9999,9999,9999,58,3,57,999999,999999,999999,999999,315,3.6,99,99,9999.0,99999,9,999999999,999.0,0.999,999,99,999.00,999.0,99
2025,1,15,13,60,?9?9?9?9?9?9?9?9?9,5.9,4.9,93,102400,9999,9999,9999,62,3,62,999999,999999,999999,999999,319,4.0,99,99,9999.0,99999,9,999999999,999.0,0.999,999,99,999.00,999.0,99
2025,1,15,14,60,?9?9?9?9?9?9?9?9?9,6.1,4.9,92,102400,9999,9999,9999,64,3,63,999999,999999,999999,999999,308,4.0,99,99,9999.0,99999,9,999999999,999.0,0.999,999,99,999.00,999.0,99
2025,1,15,15,60,?9?9?9?9?9?9?9?9?9,6.1,4.6,90,102500,9999,9999,9999,46,3,46,999999,999999,999999,999999,328,3.6,99,99,9999.0,99999,9,999999999,999.0,0.999,999,99,999.00,999.0,99
2025,1,15,16,60,?9?9?9?9?9?9?9?9?9,6.1,4.3,88,102500,9999,9999,9999,30,3,29,999999,999999,999999,999999,343,3.2,99,99,9999.0,99999,9,999999999,999.0,0.999,999,99,999.00,999.0,99
2025,1,15,17,60,?9?9?9?9?9?9?9?9?9,6.0,4.2,88,102500,9999,9999,9999,9,0,9,999999,999999,999999,999999,320,2.8,99,99,9999.0,99999,9,999999999,999.0,0.999,999,99,999.00,999.0,99
2025,1,15,18,60,?9?9?9?9?9?9?9?9?9,5.7,4.0,89,102600,9999,9999,9999,0,0,0,999999,999999,999999,999999,348,2.1,99,99,9999.0,99999,9,999999999,999.0,0.999,999,99,999.00,999.0,99
2025,1,15,19,60,?9?9?9?9?9?9?9?9?9,5.6,3.9,89,102600,9999,9999,9999,0,0,0,999999,999999,999999,999999,340,2.4,99,99,9999.0,99999,9,999999999,999.0,0.999,999,99,999.00,999.0,99
2025,1,15,20,60,?9?9?9?9?9?9?9?9?9,5.4,3.7,89,102700,9999,9999,9999,0,0,0,999999,999999,999999,999999,347,2.0,99,99,9999.0,99999,9,999999999,999.0,0.999,999,99,999.00,999.0,99
2025,1,15,21,60,?9?9?9?9?9?9?9?9?9,5.4,3.8,90,102800,9999,9999,9999,0,0,0,999999,999999,999999,999999,322,1.9,99,99,9999.0,99999,9,999999999,999.0,0.999,999,99,999.00,999.0,99
2025,1,15,22,60,?9?9?9?9?9?9?9?9?9,5.1,3.7,90,102800,9999,9999,9999,0,0,0,999999,999999,999999,999999,297,2.3,99,99,9999.0,99999,9,999999999,999.0,0.999,999,99,999.00,999.0,99
2025,1,15,23,60,?9?9?9?9?9?9?9?9?9,4.8,3.6,92,102900,9999,9999,9999,0,0,0,999999,999999,999999,999999,273,2.6,99,99,9999.0,99999,9,999999999,999.0,0.999,999,99,999.00,999.0,99
2025,1,15,24,60,?9?9?9?9?9?9?9?9?9,4.6,3.6,93,102900,9999,9999,9999,0,0,0,999999,999999,999999,999999,334,2.1,99,99,9999.0,99999,9,999999999,999.0,0.999,999,99,999.00,999.0,99
2025,1,16,1,60,?9?9?9?9?9?9?9?9?9,4.5,3.6,94,103000,9999,9999,9999,0,0,0,999999,999999,999999,999999,293,1.5,99,99,9999.0,99999,9,999999999,999.0,0.999,999,99,999.00,999.0,99
2025,1,16,2,60,?9?9?9?9?9?9?9?9?9,4.4,3.5,94,103000,9999,9999,9999,0,0,0,999999,999999,999999,999999,309,1.8,99,99,9999.0,99999,9,999999999,999.0,0.999,999,99,999.00,999.0,99
2025,1,16,3,60,?9?9?9?9?9?9?9?9?9,4.3,3.3,94,103000,9999,9999,9999,0,0,0,999999,999999,999999,999999,282,2.2,99,99,9999.0,99999,9,999999999,999.0,0.999,999,99,999.00,999.0,99
2025,1,16,4,60,?9?9?9?9?9?9?9?9?9,4.3,3.4,94,103000,9999,9999,9999,0,0,0,999999,999999,999999,999999,285,1.7,99,99,9999.0,99999,9,999999999,999.0,0.999,999,99,999.00,999.0,99
2025,1,16,5,60,?9?9?9?9?9?9?9?9?9,4.2,3.3,94,103000,9999,9999,9999,0,0,0,999999,999999,999999,999999,279,2.4,99,99,9999.0,99999,9,999999999,999.0,0.999,999,99,999.00,999.0,99
2025,1,16,6,60,?9?9?9?9?9?9?9?9?9,4.0,3.0,93,103100,9999,9999,9999,0,0,0,999999,999999,999999,999999,267,2.9,99,99,9999.0,99999,9,999999999,999.0,0.999,999,99,999.00,999.0,99
2025,1,16,7,60,?9?9?9?9?9?9?9?9?9,3.9,2.9,93,103100,9999,9999,9999,0,0,0,999999,999999,999999,999999,258,2.6,99,99,9999.0,99999,9,999999999,999.0,0.999,999,99,999.00,999.0,99
2025,1,16,8,60,?9?9?9?9?9?9?9?9?9,3.5,2.6,94,103100,9999,9999,9999,0,0,0,999999,999999,999999,999999,271,3.2,99,99,9999.0,99999,9,999999999,999.0,0.999,999,99,999.00,999.0,99
2025,1,16,9,60,?9?9?9?9?9?9?9?9?9,3.3,2.5,94,103200,9999,9999,9999,0,0,0,999999,999999,999999,999999,253,3.1,99,99,9999.0,99999,9,999999999,999.0,0.999,999,99,999.00,999.0,99
2025,1,16,10,60,?9?9?9?9?9?9?9?9?9,3.3,2.6,95,103200,9999,9999,9999,9,1,9,999999,999999,999999,999999,252,3.9,99,99,9999.0,99999,9,999999999,999.0,0.999,999,99,999.00,999.0,99
2025,1,16,11,60,?9?9?9?9?9?9?9?9?9,3.4,2.7,95,103200,9999,9999,9999,41,3,41,999999,999999,999999,999999,254,3.6,99,99,9999.0,99999,9,999999999,999.0,0.999,999,99,999.00,999.0,99
2025,1,16,12,60,?9?9?9?9?9?9?9?9?9,3.1,2.4,95,103300,9999,9999,9999,47,2,47,999999,999999,999999,999999,264,3.8,99,99,9999.0,99999,9,999999999,999.0,0.999,999,99,999.00,999.0,99
2025,1,16,13,60,?9?9?9?9?9?9?9?9?9,3.1,2.3,94,103300,9999,9999,9999,53,2,52,999999,999999,999999,999999,257,4.1,99,99,9999.0,99999,9,999999999,999.0,0.999,999,99,999.00,999.0,99
2025,1,16,14,60,?9?9?9?9?9?9?9?9?9,3.4,2.5,94,103300,9999,9999,9999,49,2,49,999999,999999,999999,999999,253,3.6,99,99,9999.0,99999,9,999999999,999.0,0.999,999,99,999.00,999.0,99
2025,1,16,15,60,?9?9?9?9?9?9?9?9?9,3.6,2.5,93,103300,9999,9999,9999,36,2,36,999999,999999,999999,999999,250,3.2,99,99,9999.0,99999,9,999999999,999.0,0.999,999,99,999.00,999.0,99
2025,1,16,16,60,?9?9?9?9?9?9?9?9?9,3.4,2.0,91,103300,9999,9999,9999,26,2,26,999999,999999,999999,999999,247,3.8,99,99,9999.0,99999,9,999999999,999.0,0.999,999,99,999.00,999.0,99
2025,1,16,17,60,?9?9?9?9?9?9?9?9?9,3.3,1.8,90,103200,9999,9999,9999,8,0,8,999999,999999,999999,999999,251,3.7,99,99,9999.0,99999,9,999999999,999.0,0.999,999,99,999.00,999.0,99
2025,1,16,18,60,?9?9?9?9?9?9?9?9?9,3.3,1.7,90,103300,9999,9999,9999,0,0,0,999999,999999,999999,999999,227,3.1,99,99,9999.0,99999,9,999999999,999.0,0.999,999,99,999.00,999.0,99
2025,1,16,19,60,?9?9?9?9?9?9?9?9?9,3.4,1.7,89,103300,9999,9999,9999,0,0,0,999999,999999,999999,999999,231,3.5,99,99,9999.0,99999,9,999999999,999.0,0.999,999,99,999.00,999.0,99
2025,1,16,20,60,?9?9?9?9?9?9?9?9?9,3.4,1.7,89,103300,9999,9999,9999,0,0,0,999999,999999,999999,999999,223,3.9,99,99,9999.0,99999,9,999999999,999.0,0.999,999,99,999.00,999.0,99
2025,1,16,21,60,?9?9?9?9?9?9?9?9?9,3.2,1.6,89,103300,9999,9999,9999,0,0,0,999999,999999,999999,999999,226,3.9,99,99,9999.0,99999,9,999999999,999.0,0.999,999,99,999.00,999.0,99
2025,1,16,22,60,?9?9?9?9?9?9?9?9?9,3.0,1.5,90,103300,9999,9999,9999,0,0,0,999999,999999,999999,999999,225,3.6,99,99,9999.0,99999,9,999999999,999.0,0.999,999,99,999.00,999.0,99
2025,1,16,23,60,?9?9?9?9?9?9?9?9?9,2.9,1.5,90,103300,9999,9999,9999,0,0,0,999999,999999,999999,999999,235,3.4,99,99,9999.0,99999,9,999999999,999.0,0.999,999,99,999.00,999.0,99
2025,1,16,24,60,?9?9?9?9?9?9?9?9?9,2.7,1.3,91,103400,9999,9999,9999,0,0,0,999999,999999,999999,999999,242,2.9,99,99,9999.0,99999,9,999999999,999.0,0.999,999,99,999.00,999.0,99
2025,1,17,1,60,?9?9?9?9?9?9?9?9?9,2.4,1.2,92,103400,9999,9999,9999,0,0,0,999999,999999,999999,999999,244,3.1,99,99,9999.0,99999,9,999999999,999.0,0.999,999,99,999.00,999.0,99
2025,1,17,2,60,?9?9?9?9?9?9?9?9?9,2.3,1.3,93,103400,9999,9999,9999,0,0,0,999999,999999,999999,999999,233,3.1,99,99,9999.0,99999,9,999999999,999.0,0.999,999,99,999.00,999.0,99
2025,1,17,3,60,?9?9?9?9?9?9?9?9?9,2.0,1.4,96,103400,9999,9999,9999,0,0,0,999999,999999,999999,999999,217,3.3,99,99,9999.0,99999,9,999999999,999.0,0.999,999,99,999.00,999.0,99
2025,1,17,4,60,?9?9?9?9?9?9?9?9?9,1.8,1.3,97,103400,9999,9999,9999,0,0,0,999999,999999,999999,999999,228,2.9,99,99,9999.0,99999,9,999999999,999.0,0.999,999,99,999.00,999.0,99
2025,1,17,5,60,?9?9?9?9?9?9?9?9?9,1.4,1.1,98,103300,9999,9999,9999,0,0,0,999999,999999,999999,999999,230,3.1,99,99,9999.0,99999,9,999999999,999.0,0.999,999,99,999.00,999.0,99
2025,1,17,6,60,?9?9?9?9?9?9?9?9?9,1.2,1.0,99,103300,9999,9999,9999,0,0,0,999999,999999,999999,999999,244,3.1,99,99,9999.0,99999,9,999999999,999.0,0.999,999,99,999.00,999.0,99
2025,1,17,7,60,?9?9?9?9?9?9?9?9?9,1.1,1.0,99,103300,9999,9999,9999,0,0,0,999999,999999,999999,999999,232,2.0,99,99,9999.0,99999,9,999999999,999.0,0.999,999,99,999.00,999.0,99
2025,1,17,8,60,?9?9?9?9?9?9?9?9?9,0.9,0.8,100,103300,9999,9999,9999,0,0,0,999999,999999,999999,999999,233,2.5,99,99,9999.0,99999,9,999999999,999.0,0.999,999,99,999.00,999.0,99
2025,1,17,9,60,?9?9?9?9?9?9?9?9?9,0.7,0.7,100,103400,9999,9999,9999,0,0,0,999999,999999,999999,999999,231,2.7,99,99,9999.0,99999,9,999999999,999.0,0.999,999,99,999.00,999.0,99
2025,1,17,10,60,?9?9?9?9?9?9?9?9?9,0.7,0.7,100,103400,9999,9999,9999,11,1,11,999999,999999,999999,999999,240,2.4,99,99,9999.0,99999,9,999999999,999.0,0.999,999,99,999.00,999.0,99
2025,1,17,11,60,?9?9?9?9?9?9?9?9?9,0.6,0.6,100,103400,9999,9999,9999,48,4,47,999999,999999,999999,999999,237,3.1,99,99,9999.0,99999,9,999999999,999.0,0.999,999,99,999.00,999.0,99
2025,1,17,12,60,?9?9?9?9?9?9?9?9?9,0.8,0.8,100,103400,9999,9999,9999,66,4,65,999999,999999,999999,999999,250,2.4,99,99,9999.0,99999,9,999999999,999.0,0.999,999,99,999.00,999.0,99
2025,1,17,13,60,?9?9?9?9?9?9?9?9?9,0.9,0.9,100,103400,9999,9999,9999,76,4,74,999999,999999,999999,999999,235,2.0,99,99,9999.0,99999,9,999999999,999.0,0.999,999,99,999.00,999.0,99
2025,1,17,14,60,?9?9?9?9?9?9?9?9?9,1.4,1.1,98,103400,9999,9999,9999,94,8,91,999999,999999,999999,999999,260,2.0,99,99,9999.0,99999,9,999999999,999.0,0.999,999,99,999.00,999.0,99
2025,1,17,15,60,?9?9?9?9?9?9?9?9?9,1.4,0.7,95,103400,9999,9999,9999,112,40,102,999999,999999,999999,999999,233,2.2,99,99,9999.0,99999,9,999999999,999.0,0.999,999,99,999.00,999.0,99
2025,1,17,16,60,?9?9?9?9?9?9?9?9?9,1.5,0.6,94,103300,9999,9999,9999,88,103,72,999999,999999,999999,999999,205,2.2,99,99,9999.0,99999,9,999999999,999.0,0.999,999,99,999.00,999.0,99
2025,1,17,17,60,?9?9?9?9?9?9?9?9?9,1.3,0.4,94,103300,9999,9999,9999,27,0,27,999999,999999,999999,999999,227,2.6,99,99,9999.0,99999,9,999999999,999.0,0.999,999,99,999.00,999.0,99
2025,1,17,18,60,?9?9?9?9?9?9?9?9?9,0.9,0.2,95,103300,9999,9999,9999,0,0,0,999999,999999,999999,999999,210,2.6,99,99,9999.0,99999,9,999999999,999.0,0.999,999,99,999.00,999.0,99
2025,1,17,19,60,?9?9?9?9?9?9?9?9?9,0.8,0.3,97,103200,9999,9999,9999,0,0,0,999999,999999,999999,999999,226,2.6,99,99,9999.0,99999,9,999999999,999.0,0.999,999,99,999.00,999.0,99
2025,1,17,20,60,?9?9?9?9?9?9?9?9?9,0.5,0.3,99,103200,9999,9999,9999,0,0,0,999999,999999,999999,999999,219,1.9,99,99,9999.0,99999,9,999999999,999.0,0.999,999,99,999.00,999.0,99
2025,1,17,21,60,?9?9?9?9?9?9?9?9?9,0.4,0.2,99,103300,9999,9999,9999,0,0,0,999999,999999,999999,999999,308,2.2,99,99,9999.0,99999,9,999999999,999.0,0.999,999,99,999.00,999.0,99
2025,1,17,22,60,?9?9?9?9?9?9?9?9?9,0.2,-0.0,98,103300,9999,9999,9999,0,0,0,999999,999999,999999,999999,236,1.7,99,99,9999.0,99999,9,999999999,999.0,0.999,999,99,999.00,999.0,99
2025,1,17,23,60,?9?9?9?9?9?9?9?9?9,0.1,-0.1,99,103300,9999,9999,9999,0,0,0,999999,999999,999999,999999,255,2.0,99,99,9999.0,99999,9,999999999,999.0,0.999,999,99,999.00,999.0,99
2025,1,17,24,60,?9?9?9?9?9?9?9?9?9,-0.2,-0.4,99,103300,9999,9999,9999,0,0,0,999999,999999,999999,999999,244,2.5,99,99,9999.0,99999,9,999999999,999.0,0.999,999,99,999.00,999.0,99
2025,1,18,1,60,?9?9?9?9?9?9?9?9?9,-0.5,-0.7,99,103200,9999,9999,9999,0,0,0,999999,999999,999999,999999,212,2.3,99,99,9999.0,99999,9,999999999,999.0,0.999,999,99,999.00,999.0,99
2025,1,18,2,60,?9?9?9?9?9?9?9?9?9,-0.8,-1.0,99,103200,9999,9999,9999,0,0,0,999999,999999,999999,999999,269,1.8,99,99,9999.0,99999,9,999999999,999.0,0.999,999,99,999.00,999.0,99
2025,1,18,3,60,?9?9?9?9?9?9?9?9?9,-1.0,-1.1,99,103100,9999,9999,9999,0,0,0,999999,999999,999999,999999,72,1.0,99,99,9999.0,99999,9,999999999,999.0,0.999,999,99,999.00,999.0,99
2025,1,18,4,60,?9?9?9?9?9?9?9?9?9,-1.1,-1.3,99,103100,9999,9999,9999,0,0,0,999999,999999,999999,999999,304,2.3,99,99,9999.0,99999,9,999999999,999.0,0.999,999,99,999.00,999.0,99
2025,1,18,5,60,?9?9?9?9?9?9?9?9?9,-1.1,-1.3,98,103100,9999,9999,9999,0,0,0,999999,999999,999999,999999,254,2.2,99,99,9999.0,99999,9,999999999,999.0,0.999,999,99,999.00,999.0,99
2025,1,18,6,60,?9?9?9?9?9?9?9?9?9,-1.4,-1.6,98,103100,9999,9999,9999,0,0,0,999999,999999,999999,999999,268,2.4,99,99,9999.0,99999,9,999999999,999.0,0.999,999,99,999.00,999.0,99
2025,1,18,7,60,?9?9?9?9?9?9?9?9?9,-1.5,-1.7,98,103100,9999,9999,9999,0,0,0,999999,999999,999999,999999,287,1.4,99,99,9999.0,99999,9,999999999,999.0,0.999,999,99,999.00,999.0,99
2025,1,18,8,60,?9?9?9?9?9?9?9?9?9,-1.7,-1.9,98,103100,9999,9999,9999,0,0,0,999999,999999,999999,999999,233,1.3,99,99,9999.0,99999,9,999999999,999.0,0.999,999,99,999.00,999.0,99
2025,1,18,9,60,?9?9?9?9?9?9?9?9?9,-1.8,-2.0,98,103000,9999,9999,9999,0,0,0,999999,999999,999999,999999,211,1.1,99,99,9999.0,99999,9,999999999,999.0,0.999,999,99,999.00,999.0,99
2025,1,18,10,60,?9?9?9?9?9?9?9?9?9,-1.9,-2.1,99,103000,9999,9999,9999,15,2,15,999999,999999,999999,999999,211,1.5,99,99,9999.0,99999,9,999999999,999.0,0.999,999,99,999.00,999.0,99
2025,1,18,11,60,?9?9?9?9?9?9?9?9?9,-1.9,-2.1,99,103000,9999,9999,9999,67,9,66,999999,999999,999999,999999,234,1.3,99,99,9999.0,99999,9,999999999,999.0,0.999,999,99,999.00,999.0,99
2025,1,18,12,60,?9?9?9?9?9?9?9?9?9,-2.0,-2.2,99,103000,9999,9999,9999,99,12,95,999999,999999,999999,999999,180,1.3,99,99,9999.0,99999,9,999999999,999.0,0.999,999,99,999.00,999.0,99
2025,1,18,13,60,?9?9?9?9?9?9?9?9?9,-1.3,-1.5,99,103000,9999,9999,9999,138,37,127,999999,999999,999999,999999,257,1.2,99,99,9999.0,99999,9,999999999,999.0,0.999,999,99,999.00,999.0,99
2025,1,18,14,60,?9?9?9?9?9?9?9?9?9,-1.0,-1.2,99,102900,9999,9999,9999,137,42,125,999999,999999,999999,999999,47,1.2,99,99,9999.0,99999,9,999999999,999.0,0.999,999,99,999.00,999.0,99
2025,1,18,15,60,?9?9?9?9?9?9?9?9?9,-0.6,-0.8,98,102900,9999,9999,9999,94,16,90,999999,999999,999999,999999,111,1.7,99,99,9999.0,99999,9,999999999,999.0,0.999,999,99,999.00,999.0,99
2025,1,18,16,60,?9?9?9?9?9?9?9?9?9,-0.5,-0.7,98,102900,9999,9999,9999,65,20,62,999999,999999,999999,999999,122,1.3,99,99,9999.0,99999,9,999999999,999.0,0.999,999,99,999.00,999.0,99
2025,1,18,17,60,?9?9?9?9?9?9?9?9?9,-0.7,-0.9,99,102900,9999,9999,9999,24,0,24,999999,999999,999999,999999,76,1.3,99,99,9999.0,99999,9,999999999,999.0,0.999,999,99,999.00,999.0,99
2025,1,18,18,60,?9?9?9?9?9?9?9?9?9,-0.8,-0.9,99,102900,9999,9999,9999,0,0,0,999999,999999,999999,999999,65,1.2,99,99,9999.0,99999,9,999999999,999.0,0.999,999,99,999.00,999.0,99
2025,1,18,19,60,?9?9?9?9?9?9?9?9?9,-0.9,-1.0,99,102800,9999,9999,9999,0,0,0,999999,999999,999999,999999,84,0.9,99,99,9999.0,99999,9,999999999,999.0,0.999,999,99,999.00,999.0,99
2025,1,18,20,60,?9?9?9?9?9?9?9?9?9,-1.0,-1.2,99,102800,9999,9999,9999,0,0,0,999999,999999,999999,999999,36,0.7,99,99,9999.0,99999,9,999999999,999.0,0.999,999,99,999.00,999.0,99
2025,1,18,21,60,?9?9?9?9?9?9?9?9?9,-1.0,-1.2,98,102800,9999,9999,9999,0,0,0,999999,999999,999999,999999,54,0.5,99,99,9999.0,99999,9,999999999,999.0,0.999,999,99,999.00,999.0,99
2025,1,18,22,60,?9?9?9?9?9?9?9?9?9,-0.9,-1.1,98,102800,9999,9999,9999,0,0,0,999999,999999,999999,999999,71,1.5,99,99,9999.0,99999,9,999999999,999.0,0.999,999,99,999.00,999.0,99
2025,1,18,23,60,?9?9?9?9?9?9?9?9?9,-1.1,-1.3,98,102700,9999,9999,9999,0,0,0,999999,999999,999999,999999,89,1.5,99,99,9999.0,99999,9,999999999,999.0,0.999,999,99,999.00,999.0,99
2025,1,18,24,60,?9?9?9?9?9?9?9?9?9,-1.6,-1.9,98,102700,9999,9999,9999,0,0,0,999999,999999,999999,999999,80,1.1,99,99,9999.0,99999,9,999999999,999.0,0.999,999,99,999.00,999.0,99
2025,1,19,1,60,?9?9?9?9?9?9?9?9?9,-1.8,-2.2,97,102700,9999,9999,9999,0,0,0,999999,999999,999999,999999,79,1.2,99,99,9999.0,99999,9,999999999,999.0,0.999,999,99,999.00,999.0,99
2025,1,19,2,60,?9?9?9?9?9?9?9?9?9,-2.1,-2.5,97,102700,9999,9999,9999,0,0,0,999999,999999,999999,999999,69,1.5,99,99,9999.0,99999,9,999999999,999.0,0.999,999,99,999.00,999.0,99
2025,1,19,3,60,?9?9?9?9?9?9?9?9?9,-2.3,-2.8,96,102600,9999,9999,9999,0,0,0,999999,999999,999999,999999,92,1.6,99,99,9999.0,99999,9,999999999,999.0,0.999,999,99,999.00,999.0,99
2025,1,19,4,60,?9?9?9?9?9?9?9?9?9,-2.4,-2.9,96,102600,9999,9999,9999,0,0,0,999999,999999,999999,999999,79,1.6,99,99,9999.0,99999,9,999999999,999.0,0.999,999,99,999.00,999.0,99
2025,1,19,5,60,?9?9?9?9?9?9?9?9?9,-2.4,-2.9,96,102500,9999,9999,9999,0,0,0,999999,999999,999999,999999,71,1.7,99,99,9999.0,99999,9,999999999,999.0,0.999,999,99,999.00,999.0,99
2025,1,19,6,60,?9?9?9?9?9?9?9?9?9,-2.4,-2.9,97,102500,9999,9999,9999,0,0,0,999999,999999,999999,999999,67,2.0,99,99,9999.0,99999,9,999999999,999.0,0.999,999,99,999.00,999.0,99
2025,1,19,7,60,?9?9?9?9?9?9?9?9?9,-2.3,-2.7,97,102400,9999,9999,9999,0,0,0,999999,999999,999999,999999,87,1.6,99,99,9999.0,99999,9,999999999,999.0,0.999,999,99,999.00,999.0,99
2025,1,19,8,60,?9?9?9?9?9?9?9?9?9,-2.5,-3.0,96,102400,9999,9999,9999,0,0,0,999999,999999,999999,999999,105,1.4,99,99,9999.0,99999,9,999999999,999.0,0.999,999,99,999.00,999.0,99
2025,1,19,9,60,?9?9?9?9?9?9?9?9?9,-2.5,-3.1,96,102300,9999,9999,9999,0,0,0,999999,999999,999999,999999,93,1.2,99,99,9999.0,99999,9,999999999,999.0,0.999,999,99,999.00,999.0,99
2025,1,19,10,60,?9?9?9?9?9?9?9?9?9,-2.7,-3.4,95,102300,9999,9999,9999,26,5,26,999999,999999,999999,999999,83,1.6,99,99,9999.0,99999,9,999999999,999.0,0.999,999,99,999.00,999.0,99
2025,1,19,11,60,?9?9?9?9?9?9?9?9?9,-1.6,-2.4,94,102300,9999,9999,9999,118,120,95,999999,999999,999999,999999,83,2.1,99,99,9999.0,99999,9,999999999,999.0,0.999,999,99,999.00,999.0,99
2025,1,19,12,60,?9?9?9?9?9?9?9?9?9,-0.4,-1.4,93,102300,9999,9999,9999,213,396,108,999999,999999,999999,999999,109,2.4,99,99,9999.0,99999,9,999999999,999.0,0.999,999,99,999.00,999.0,99
2025,1,19,13,60,?9?9?9?9?9?9?9?9?9,1.8,0.0,88,102300,9999,9999,9999,258,528,102,999999,999999,999999,999999,102,2.3,99,99,9999.0,99999,9,999999999,999.0,0.999,999,99,999.00,999.0,99
2025,1,19,14,60,?9?9?9?9?9?9?9?9?9,4.7,1.5,80,102200,9999,9999,9999,276,700,75,999999,999999,999999,999999,98,2.6,99,99,9999.0,99999,9,999999999,999.0,0.999,999,99,999.00,999.0,99
2025,1,19,15,60,?9?9?9?9?9?9?9?9?9,6.3,1.9,73,102100,9999,9999,9999,234,720,61,999999,999999,999999,999999,102,2.6,99,99,9999.0,99999,9,999999999,999.0,0.999,999,99,999.00,999.0,99
2025,1,19,16,60,?9?9?9?9?9?9?9?9?9,6.9,1.7,70,102000,9999,9999,9999,155,729,40,999999,999999,999999,999999,92,3.0,99,99,9999.0,99999,9,999999999,999.0,0.999,999,99,999.00,999.0,99
2025,1,19,17,60,?9?9?9?9?9?9?9?9?9,6.2,1.2,70,102000,9999,9999,9999,64,0,64,999999,999999,999999,999999,94,2.9,99,99,9999.0,99999,9,999999999,999.0,0.999,999,99,999.00,999.0,99
2025,1,19,18,60,?9?9?9?9?9?9?9?9?9,4.7,1.0,77,101900,9999,9999,9999,0,0,0,999999,999999,999999,999999,74,2.7,99,99,9999.0,99999,9,999999999,999.0,0.999,999,99,999.00,999.0,99
2025,1,19,19,60,?9?9?9?9?9?9?9?9?9,3.6,1.2,84,101900,9999,9999,9999,0,0,0,999999,999999,999999,999999,89,2.7,99,99,9999.0,99999,9,999999999,999.0,0.999,999,99,999.00,999.0,99
2025,1,19,20,60,?9?9?9?9?9?9?9?9?9,3.2,1.2,87,101900,9999,9999,9999,0,0,0,999999,999999,999999,999999,94,3.2,99,99,9999.0,99999,9,999999999,999.0,0.999,999,99,999.00,999.0,99
2025,1,19,21,60,?9?9?9?9?9?9?9?9?9,2.8,1.0,88,101900,9999,9999,9999,0,0,0,999999,999999,999999,999999,102,2.7,99,99,9999.0,99999,9,999999999,999.0,0.999,999,99,999.00,999.0,99
2025,1,19,22,60,?9?9?9?9?9?9?9?9?9,2.6,0.8,88,101900,9999,9999,9999,0,0,0,999999,999999,999999,999999,91,2.7,99,99,9999.0,99999,9,999999999,999.0,0.999,999,99,999.00,999.0,99
2025,1,19,23,60,?9?9?9?9?9?9?9?9?9,2.5,0.8,88,101800,9999,9999,9999,0,0,0,999999,999999,999999,999999,85,3.0,99,99,9999.0,99999,9,999999999,999.0,0.999,999,99,999.00,999.0,99
2025,1,19,24,60,?9?9?9?9?9?9?9?9?9,2.4,0.8,89,101800,9999,9999,9999,0,0,0,999999,999999,999999,999999,92,2.6,99,99,9999.0,99999,9,999999999,999.0,0.999,999,99,999.00,999.0,99
2025,1,20,1,60,?9?9?9?9?9?9?9?9?9,2.3,0.7,89,101800,9999,9999,9999,0,0,0,999999,999999,999999,999999,102,2.2,99,99,9999.0,99999,9,999999999,999.0,0.999,999,99,999.00,999.0,99
2025,1,20,2,60,?9?9?9?9?9?9?9?9?9,2.4,1.0,90,101800,9999,9999,9999,0,0,0,999999,999999,999999,999999,92,2.7,99,99,9999.0,99999,9,999999999,999.0,0.999,999,99,999.00,999.0,99
2025,1,20,3,60,?9?9?9?9?9?9?9?9?9,2.0,0.8,92,101700,9999,9999,9999,0,0,0,999999,999999,999999,999999,95,1.5,99,99,9999.0,99999,9,999999999,999.0,0.999,999,99,999.00,999.0,99
2025,1,20,4,60,?9?9?9?9?9?9?9?9?9,1.8,0.8,93,101600,9999,9999,9999,0,0,0,999999,999999,999999,999999,100,1.9,99,99,9999.0,99999,9,999999999,999.0,0.999,999,99,999.00,999.0,99
2025,1,20,5,60,?9?9?9?9?9?9?9?9?9,1.9,1.0,94,101600,9999,9999,9999,0,0,0,999999,999999,999999,999999,112,2.2,99,99,9999.0,99999,9,999999999,999.0,0.999,999,99,999.00,999.0,99
2025,1,20,6,60,?9?9?9?9?9?9?9?9?9,2.1,1.2,94,101600,9999,9999,9999,0,0,0,999999,999999,999999,999999,110,2.8,99,99,9999.0,99999,9,999999999,999.0,0.999,999,99,999.00,999.0,99
2025,1,20,7,60,?9?9?9?9?9?9?9?9?9,2.6,1.4,92,101500,9999,9999,9999,0,0,0,999999,999999,999999,999999,108,3.2,99,99,9999.0,99999,9,999999999,999.0,0.999,999,99,999.00,999.0,99
2025,1,20,8,60,?9?9?9?9?9?9?9?9?9,2.4,1.0,90,101500,9999,9999,9999,0,0,0,999999,999999,999999,999999,124,2.1,99,99,9999.0,99999,9,999999999,999.0,0.999,999,99,999.00,999.0,99
2025,1,20,9,60,?9?9?9?9?9?9?9?9?9,1.5,0.3,92,101500,9999,9999,9999,0,0,0,999999,999999,999999,999999,104,2.1,99,99,9999.0,99999,9,999999999,999.0,0.999,999,99,999.00,999.0,99
2025,1,20,10,60,?9?9?9?9?9?9?9?9?9,1.6,0.5,92,101500,9999,9999,9999,29,5,28,999999,999999,999999,999999,109,2.0,99,99,9999.0,99999,9,999999999,999.0,0.999,999,99,999.00,999.0,99
2025,1,20,11,60,?9?9?9?9?9?9?9?9?9,3.0,1.7,91,101500,9999,9999,9999,121,125,96,999999,999999,999999,999999,103,2.0,99,99,9999.0,99999,9,999999999,999.0,0.999,999,99,999.00,999.0,99
2025,1,20,12,60,?9?9?9?9?9?9?9?9?9,5.2,2.5,83,101500,9999,9999,9999,214,386,110,999999,999999,999999,999999,132,2.3,99,99,9999.0,99999,9,999999999,999.0,0.999,999,99,999.00,999.0,99
2025,1,20,13,60,?9?9?9?9?9?9?9?9?9,6.0,1.8,75,101500,9999,9999,9999,259,516,105,999999,999999,999999,999999,132,2.3,99,99,9999.0,99999,9,999999999,999.0,0.999,999,99,999.00,999.0,99
2025,1,20,14,60,?9?9?9?9?9?9?9?9?9,6.8,1.8,71,101400,9999,9999,9999,276,676,80,999999,999999,999999,999999,136,2.4,99,99,9999.0,99999,9,999999999,999.0,0.999,999,99,999.00,999.0,99
2025,1,20,15,60,?9?9?9?9?9?9?9?9?9,7.1,1.6,68,101400,9999,9999,9999,217,552,82,999999,999999,999999,999999,137,2.7,99,99,9999.0,99999,9,999999999,999.0,0.999,999,99,999.00,999.0,99
2025,1,20,16,60,?9?9?9?9?9?9?9?9?9,7.3,1.8,68,101300,9999,9999,9999,132,412,65,999999,999999,999999,999999,150,2.5,99,99,9999.0,99999,9,999999999,999.0,0.999,999,99,999.00,999.0,99
2025,1,20,17,60,?9?9?9?9?9?9?9?9?9,7.7,2.0,67,101300,9999,9999,9999,33,0,33,999999,999999,999999,999999,168,2.5,99,99,9999.0,99999,9,999999999,999.0,0.999,999,99,999.00,999.0,99
2025,1,20,18,60,?9?9?9?9?9?9?9?9?9,6.5,1.2,69,101300,9999,9999,9999,0,0,0,999999,999999,999999,999999,223,2.2,99,99,9999.0,99999,9,999999999,999.0,0.999,999,99,999.00,999.0,99
2025,1,20,19,60,?9?9?9?9?9?9?9?9?9,5.7,1.4,74,101300,9999,9999,9999,0,0,0,999999,999999,999999,999999,230,2.6,99,99,9999.0,99999,9,999999999,999.0,0.999,999,99,999.00,999.0,99
2025,1,20,20,60,?9?9?9?9?9?9?9?9?9,4.6,1.2,79,101400,9999,9999,9999,0,0,0,999999,999999,999999,999999,246,2.2,99,99,9999.0,99999,9,999999999,999.0,0.999,999,99,999.00,999.0,99
2025,1,20,21,60,?9?9?9?9?9?9?9?9?9,3.2,0.8,84,101400,9999,9999,9999,0,0,0,999999,999999,999999,999999,281,2.4,99,99,9999.0,99999,9,999999999,999.0,0.999,999,99,999.00,999.0,99
2025,1,20,22,60,?9?9?9?9?9?9?9?9?9,1.8,0.1,89,101400,9999,9999,9999,0,0,0,999999,999999,999999,999999,288,2.3,99,99,9999.0,99999,9,999999999,999.0,0.999,999,99,999.00,999.0,99
2025,1,20,23,60,?9?9?9?9?9?9?9?9?9,1.4,0.3,92,101400,9999,9999,9999,0,0,0,999999,999999,999999,999999,283,2.6,99,99,9999.0,99999,9,999999999,999.0,0.999,999,99,999.00,999.0,99
2025,1,20,24,60,?9?9?9?9?9?9?9?9?9,1.0,0.2,94,101400,9999,9999,9999,0,0,0,999999,999999,999999,999999,295,2.5,99,99,9999.0,99999,9,999999999,999.0,0.999,999,99,999.00,999.0,99
2025,1,21,1,60,?9?9?9?9?9?9?9?9?9,1.2,0.6,96,101400,9999,9999,9999,0,0,0,999999,999999,999999,999999,288,2.7,99,99,9999.0,99999,9,999999999,999.0,0.999,999,99,999.00,999.0,99
2025,1,21,2,60,?9?9?9?9?9?9?9?9?9,1.2,0.7,97,101400,9999,9999,9999,0,0,0,999999,999999,999999,999999,286,3.3,99,99,9999.0,99999,9,999999999,999.0,0.999,999,99,999.00,999.0,99
2025,1,21,3,60,?9?9?9?9?9?9?9?9?9,0.9,0.4,96,101400,9999,9999,9999,0,0,0,999999,999999,999999,999999,272,4.0,99,99,9999.0,99999,9,999999999,999.0,0.999,999,99,999.00,999.0,99
2025,1,21,4,60,?9?9?9?9?9?9?9?9?9,0.8,0.2,96,101400,9999,9999,9999,0,0,0,999999,999999,999999,999999,286,3.1,99,99,9999.0,99999,9,999999999,999.0,0.999,999,99,999.00,999.0,99
2025,1,21,5,60,?9?9?9?9?9?9?9?9?9,0.7,0.0,95,101400,9999,9999,9999,0,0,0,999999,999999,999999,999999,274,3.0,99,99,9999.0,99999,9,999999999,999.0,0.999,999,99,999.00,999.0,99
2025,1,21,6,60,?9?9?9?9?9?9?9?9?9,0.6,-0.2,94,101400,9999,9999,9999,0,0,0,999999,999999,999999,999999,270,3.1,99,99,9999.0,99999,9,999999999,999.0,0.999,999,99,999.00,999.0,99
2025,1,21,7,60,?9?9?9?9?9?9?9?9?9,0.3,-0.7,93,101400,9999,9999,9999,0,0,0,999999,999999,999999,999999,255,3.2,99,99,9999.0,99999,9,999999999,999.0,0.999,999,99,999.00,999.0,99
2025,1,21,8,60,?9?9?9?9?9?9?9?9?9,-0.1,-1.4,91,101400,9999,9999,9999,0,0,0,999999,999999,999999,999999,298,3.3,99,99,9999.0,99999,9,999999999,999.0,0.999,999,99,999.00,999.0,99
2025,1,21,9,60,?9?9?9?9?9?9?9?9?9,-0.5,-1.8,91,101400,9999,9999,9999,0,0,0,999999,999999,999999,999999,289,2.4,99,99,9999.0,99999,9,999999999,999.0,0.999,999,99,999.00,999.0,99
2025,1,21,10,60,?9?9?9?9?9?9?9?9?9,-0.7,-2.0,91,101400,9999,9999,9999,22,3,21,999999,999999,999999,999999,266,2.5,99,99,9999.0,99999,9,999999999,999.0,0.999,999,99,999.00,999.0,99
2025,1,21,11,60,?9?9?9?9?9?9?9?9?9,-0.9,-2.3,90,101400,9999,9999,9999,56,5,55,999999,999999,999999,999999,250,2.2,99,99,9999.0,99999,9,999999999,999.0,0.999,999,99,999.00,999.0,99
2025,1,21,12,60,?9?9?9?9?9?9?9?9?9,-0.8,-2.2,90,101500,9999,9999,9999,88,7,86,999999,999999,999999,999999,266,1.5,99,99,9999.0,99999,9,999999999,999.0,0.999,999,99,999.00,999.0,99
2025,1,21,13,60,?9?9?9?9?9?9?9?9?9,-0.7,-2.1,90,101500,9999,9999,9999,76,4,75,999999,999999,999999,999999,240,1.4,99,99,9999.0,99999,9,999999999,999.0,0.999,999,99,999.00,999.0,99
2025,1,21,14,60,?9?9?9?9?9?9?9?9?9,-0.5,-2.0,89,101400,9999,9999,9999,52,2,51,999999,999999,999999,999999,234,1.3,99,99,9999.0,99999,9,999999999,999.0,0.999,999,99,999.00,999.0,99
2025,1,21,15,60,?9?9?9?9?9?9?9?9?9,-0.6,-2.2,89,101400,9999,9999,9999,48,2,47,999999,999999,999999,999999,196,1.8,99,99,9999.0,99999,9,999999999,999.0,0.999,999,99,999.00,999.0,99
2025,1,21,16,60,?9?9?9?9?9?9?9?9?9,-0.5,-2.0,90,101400,9999,9999,9999,42,4,41,999999,999999,999999,999999,158,2.1,99,99,9999.0,99999,9,999999999,999.0,0.999,999,99,999.00,999.0,99
2025,1,21,17,60,?9?9?9?9?9?9?9?9?9,-0.6,-1.9,91,101300,9999,9999,9999,18,6,18,999999,999999,999999,999999,152,2.4,99,99,9999.0,99999,9,999999999,999.0,0.999,999,99,999.00,999.0,99
2025,1,21,18,60,?9?9?9?9?9?9?9?9?9,-0.8,-1.9,92,101300,9999,9999,9999,0,0,0,999999,999999,999999,999999,182,2.5,99,99,9999.0,99999,9,999999999,999.0,0.999,999,99,999.00,999.0,99
2025,1,21,19,60,?9?9?9?9?9?9?9?9?9,-0.5,-1.4,93,101300,9999,9999,9999,0,0,0,999999,999999,999999,999999,176,2.4,99,99,9999.0,99999,9,999999999,999.0,0.999,999,99,999.00,999.0,99
2025,1,21,20,60,?9?9?9?9?9?9?9?9?9,-0.6,-1.5,94,101300,9999,9999,9999,0,0,0,999999,999999,999999,999999,167,2.8,99,99,9999.0,99999,9,999999999,999.0,0.999,999,99,999.00,999.0,99
2025,1,21,21,60,?9?9?9?9?9?9?9?9?9,-0.7,-1.6,94,101300,9999,9999,9999,0,0,0,999999,999999,999999,999999,181,2.1,99,99,9999.0,99999,9,999999999,999.0,0.999,999,99,999.00,999.0,99
2025,1,21,22,60,?9?9?9?9?9?9?9?9?9,-0.7,-1.5,94,101300,9999,9999,9999,0,0,0,999999,999999,999999,999999,204,2.1,99,99,9999.0,99999,9,999999999,999.0,0.999,999,99,999.00,999.0,99
2025,1,21,23,60,?9?9?9?9?9?9?9?9?9,-1.0,-1.7,95,101300,9999,9999,9999,0,0,0,999999,999999,999999,999999,185,2.2,99,99,9999.0,99999,9,999999999,999.0,0.999,999,99,999.00,999.0,99
2025,1,21,24,60,?9?9?9?9?9?9?9?9?9,-1.3,-1.8,96,101200,9999,9999,9999,0,0,0,999999,999999,999999,999999,168,2.6,99,99,9999.0,99999,9,999999999,999.0,0.999,999,99,999.00,999.0,99
2025,1,22,1,60,?9?9?9?9?9?9?9?9?9,-1.4,-1.9,96,101200,9999,9999,9999,0,0,0,999999,999999,999999,999999,170,2.1,99,99,9999.0,99999,9,999999999,999.0,0.999,999,99,999.00,999.0,99
2025,1,22,2,60,?9?9?9?9?9?9?9?9?9,-1.6,-2.0,97,101200,9999,9999,9999,0,0,0,999999,999999,999999,999999,178,1.4,99,99,9999.0,99999,9,999999999,999.0,0.999,999,99,999.00,999.0,99
2025,1,22,3,60,?9?9?9?9?9?9?9?9?9,-1.6,-1.9,98,101200,9999,9999,9999,0,0,0,999999,999999,999999,999999,149,1.3,99,99,9999.0,99999,9,999999999,999.0,0.999,999,99,999.00,999.0,99
2025,1,22,4,60,?9?9?9?9?9?9?9?9?9,-1.6,-1.8,98,101200,9999,9999,9999,0,0,0,999999,999999,999999,999999,114,1.2,99,99,9999.0,99999,9,999999999,999.0,0.999,999,99,999.00,999.0,99
2025,1,22,5,60,?9?9?9?9?9?9?9?9?9,-1.9,-2.2,98,101100,9999,9999,9999,0,0,0,999999,999999,999999,999999,146,1.7,99,99,9999.0,99999,9,999999999,999.0,0.999,999,99,999.00,999.0,99
2025,1,22,6,60,?9?9?9?9?9?9?9?9?9,-1.8,-2.1,98,101100,9999,9999,9999,0,0,0,999999,999999,999999,999999,106,1.9,99,99,9999.0,99999,9,999999999,999.0,0.999,999,99,999.00,999.0,99
2025,1,22,7,60,?9?9?9?9?9?9?9?9?9,-1.7,-2.0,98,101100,9999,9999,9999,0,0,0,999999,999999,999999,999999,113,2.2,99,99,9999.0,99999,9,999999999,999.0,0.999,999,99,999.00,999.0,99
2025,1,22,8,60,?9?9?9?9?9?9?9?9?9,-1.7,-2.0,98,101000,9999,9999,9999,0,0,0,999999,999999,999999,999999,107,2.0,99,99,9999.0,99999,9,999999999,999.0,0.999,999,99,999.00,999.0,99
2025,1,22,9,60,?9?9?9?9?9?9?9?9?9,-1.9,-2.2,98,101000,9999,9999,9999,0,0,0,999999,999999,999999,999999,108,2.5,99,99,9999.0,99999,9,999999999,999.0,0.999,999,99,999.00,999.0,99
2025,1,22,10,60,?9?9?9?9?9?9?9?9?9,-1.8,-2.1,98,101000,9999,9999,9999,15,1,15,999999,999999,999999,999999,111,2.4,99,99,9999.0,99999,9,999999999,999.0,0.999,999,99,999.00,999.0,99
2025,1,22,11,60,?9?9?9?9?9?9?9?9?9,-1.6,-1.9,98,101000,9999,9999,9999,76,11,74,999999,999999,999999,999999,105,2.4,99,99,9999.0,99999,9,999999999,999.0,0.999,999,99,999.00,999.0,99
2025,1,22,12,60,?9?9?9?9?9?9?9?9?9,-1.1,-1.5,97,100900,9999,9999,9999,192,232,128,999999,999999,999999,999999,99,2.4,99,99,9999.0,99999,9,999999999,999.0,0.999,999,99,999.00,999.0,99
2025,1,22,13,60,?9?9?9?9?9?9?9?9?9,0.3,-0.6,94,100900,9999,9999,9999,231,314,135,999999,999999,999999,999999,94,2.1,99,99,9999.0,99999,9,999999999,999.0,0.999,999,99,999.00,999.0,99
2025,1,22,14,60,?9?9?9?9?9?9?9?9?9,2.0,-0.3,85,100800,9999,9999,9999,213,253,138,999999,999999,999999,999999,94,2.4,99,99,9999.0,99999,9,999999999,999.0,0.999,999,99,999.00,999.0,99
2025,1,22,15,60,?9?9?9?9?9?9?9?9?9,2.9,-0.6,78,100700,9999,9999,9999,161,159,121,999999,999999,999999,999999,98,2.9,99,99,9999.0,99999,9,999999999,999.0,0.999,999,99,999.00,999.0,99
2025,1,22,16,60,?9?9?9?9?9?9?9?9?9,3.5,-0.6,75,100600,9999,9999,9999,91,70,79,999999,999999,999999,999999,106,3.4,99,99,9999.0,99999,9,999999999,999.0,0.999,999,99,999.00,999.0,99
2025,1,22,17,60,?9?9?9?9?9?9?9?9?9,3.3,-1.0,73,100600,9999,9999,9999,36,86,31,999999,999999,999999,999999,116,3.4,99,99,9999.0,99999,9,999999999,999.0,0.999,999,99,999.00,999.0,99
2025,1,22,18,60,?9?9?9?9?9?9?9?9?9,2.7,-1.3,75,100500,9999,9999,9999,0,0,0,999999,999999,999999,999999,109,3.5,99,99,9999.0,99999,9,999999999,999.0,0.999,999,99,999.00,999.0,99
2025,1,22,19,60,?9?9?9?9?9?9?9?9?9,2.6,-0.9,78,100500,9999,9999,9999,0,0,0,999999,999999,999999,999999,113,3.7,99,99,9999.0,99999,9,999999999,999.0,0.999,999,99,999.00,999.0,99
2025,1,22,20,60,?9?9?9?9?9?9?9?9?9,2.6,-0.7,79,100400,9999,9999,9999,0,0,0,999999,999999,999999,999999,108,3.8,99,99,9999.0,99999,9,999999999,999.0,0.999,999,99,999.00,999.0,99
2025,1,22,21,60,?9?9?9?9?9?9?9?9?9,2.7,-0.5,80,100400,9999,9999,9999,0,0,0,999999,999999,999999,999999,116,4.1,99,99,9999.0,99999,9,999999999,999.0,0.999,999,99,999.00,999.0,99
2025,1,22,22,60,?9?9?9?9?9?9?9?9?9,2.8,-0.2,81,100300,9999,9999,9999,0,0,0,999999,999999,999999,999999,127,4.4,99,99,9999.0,99999,9,999999999,999.0,0.999,999,99,999.00,999.0,99
2025,1,22,23,60,?9?9?9?9?9?9?9?9?9,2.6,-0.0,83,100300,9999,9999,9999,0,0,0,999999,999999,999999,999999,128,4.5,99,99,9999.0,99999,9,999999999,999.0,0.999,999,99,999.00,999.0,99
2025,1,22,24,60,?9?9?9?9?9?9?9?9?9,2.0,-0.4,84,100200,9999,9999,9999,0,0,0,999999,999999,999999,999999,120,3.8,99,99,9999.0,99999,9,999999999,999.0,0.999,999,99,999.00,999.0,99
2025,1,23,1,60,?9?9?9?9?9?9?9?9?9,1.5,-0.7,85,100200,9999,9999,9999,0,0,0,999999,999999,999999,999999,124,4.0,99,99,9999.0,99999,9,999999999,999.0,0.999,999,99,999.00,999.0,99
2025,1,23,2,60,?9?9?9?9?9?9?9?9?9,1.0,-1.2,85,100100,9999,9999,9999,0,0,0,999999,999999,999999,999999,136,3.6,99,99,9999.0,99999,9,999999999,999.0,0.999,999,99,999.00,999.0,99
2025,1,23,3,60,?9?9?9?9?9?9?9?9?9,0.8,-1.4,85,100000,9999,9999,9999,0,0,0,999999,999999,999999,999999,136,4.2,99,99,9999.0,99999,9,999999999,999.0,0.999,999,99,999.00,999.0,99
2025,1,23,4,60,?9?9?9?9?9?9?9?9?9,0.5,-1.6,86,99900,9999,9999,9999,0,0,0,999999,999999,999999,999999,129,4.1,99,99,9999.0,99999,9,999999999,999.0,0.999,999,99,999.00,999.0,99
2025,1,23,5,60,?9?9?9?9?9?9?9?9?9,0.6,-1.5,86,99900,9999,9999,9999,0,0,0,999999,999999,999999,999999,128,4.2,99,99,9999.0,99999,9,999999999,999.0,0.999,999,99,999.00,999.0,99
2025,1,23,6,60,?9?9?9?9?9?9?9?9?9,0.7,-1.4,86,99800,9999,9999,9999,0,0,0,999999,999999,999999,999999,134,4.2,99,99,9999.0,99999,9,999999999,999.0,0.999,999,99,999.00,999.0,99
2025,1,23,7,60,?9?9?9?9?9?9?9?9?9,1.0,-1.2,85,99700,9999,9999,9999,0,0,0,999999,999999,999999,999999,135,4.5,99,99,9999.0,99999,9,999999999,999.0,0.999,999,99,999.00,999.0,99
2025,1,23,8,60,?9?9?9?9?9?9?9?9?9,1.6,-1.0,83,99600,9999,9999,9999,0,0,0,999999,999999,999999,999999,135,5.2,99,99,9999.0,99999,9,999999999,999.0,0.999,999,99,999.00,999.0,99
2025,1,23,9,60,?9?9?9?9?9?9?9?9?9,1.9,-1.2,80,99500,9999,9999,9999,0,0,0,999999,999999,999999,999999,134,4.2,99,99,9999.0,99999,9,999999999,999.0,0.999,999,99,999.00,999.0,99
2025,1,23,10,60,?9?9?9?9?9?9?9?9?9,1.5,-1.0,83,99500,9999,9999,9999,5,0,5,999999,999999,999999,999999,145,4.4,99,99,9999.0,99999,9,999999999,999.0,0.999,999,99,999.00,999.0,99
2025,1,23,11,60,?9?9?9?9?9?9?9?9?9,1.4,0.0,91,99500,9999,9999,9999,25,1,25,999999,999999,999999,999999,159,3.7,99,99,9999.0,99999,9,999999999,999.0,0.999,999,99,999.00,999.0,99
2025,1,23,12,60,?9?9?9?9?9?9?9?9?9,1.9,1.0,94,99500,9999,9999,9999,26,1,26,999999,999999,999999,999999,188,3.5,99,99,9999.0,99999,9,999999999,999.0,0.999,999,99,999.00,999.0,99
2025,1,23,13,60,?9?9?9?9?9?9?9?9?9,2.7,1.9,94,99600,9999,9999,9999,29,1,29,999999,999999,999999,999999,220,4.1,99,99,9999.0,99999,9,999999999,999.0,0.999,999,99,999.00,999.0,99
2025,1,23,14,60,?9?9?9?9?9?9?9?9?9,3.3,2.6,95,99600,9999,9999,9999,56,2,55,999999,999999,999999,999999,243,4.3,99,99,9999.0,99999,9,999999999,999.0,0.999,999,99,999.00,999.0,99
2025,1,23,15,60,?9?9?9?9?9?9?9?9?9,4.3,3.5,95,99700,9999,9999,9999,48,2,48,999999,999999,999999,999999,260,5.4,99,99,9999.0,99999,9,999999999,999.0,0.999,999,99,999.00,999.0,99
2025,1,23,16,60,?9?9?9?9?9?9?9?9?9,4.7,3.7,93,99900,9999,9999,9999,27,2,27,999999,999999,999999,999999,263,4.8,99,99,9999.0,99999,9,999999999,999.0,0.999,999,99,999.00,999.0,99
2025,1,23,17,60,?9?9?9?9?9?9?9?9?9,5.1,3.8,91,100000,9999,9999,9999,16,4,16,999999,999999,999999,999999,252,4.6,99,99,9999.0,99999,9,999999999,999.0,0.999,999,99,999.00,999.0,99
2025,1,23,18,60,?9?9?9?9?9?9?9?9?9,5.1,3.4,89,100100,9999,9999,9999,1,0,1,999999,999999,999999,999999,241,4.8,99,99,9999.0,99999,9,999999999,999.0,0.999,999,99,999.00,999.0,99
2025,1,23,19,60,?9?9?9?9?9?9?9?9?9,4.9,3.2,89,100200,9999,9999,9999,0,0,0,999999,999999,999999,999999,234,4.4,99,99,9999.0,99999,9,999999999,999.0,0.999,999,99,999.00,999.0,99
2025,1,23,20,60,?9?9?9?9?9?9?9?9?9,5.1,3.3,88,100300,9999,9999,9999,0,0,0,999999,999999,999999,999999,223,4.1,99,99,9999.0,99999,9,999999999,999.0,0.999,999,99,999.00,999.0,99
2025,1,23,21,60,?9?9?9?9?9?9?9?9?9,5.1,2.9,86,100400,9999,9999,9999,0,0,0,999999,999999,999999,999999,230,4.6,99,99,9999.0,99999,9,999999999,999.0,0.999,999,99,999.00,999.0,99
2025,1,23,22,60,?9?9?9?9?9?9?9?9?9,5.0,2.6,84,100400,9999,9999,9999,0,0,0,999999,999999,999999,999999,215,4.6,99,99,9999.0,99999,9,999999999,999.0,0.999,999,99,999.00,999.0,99
2025,1,23,23,60,?9?9?9?9?9?9?9?9?9,4.9,2.2,83,100500,9999,9999,9999,0,0,0,999999,999999,999999,999999,226,3.9,99,99,9999.0,99999,9,999999999,999.0,0.999,999,99,999.00,999.0,99
2025,1,23,24,60,?9?9?9?9?9?9?9?9?9,4.8,1.6,80,100500,9999,9999,9999,0,0,0,999999,999999,999999,999999,226,3.6,99,99,9999.0,99999,9,999999999,999.0,0.999,999,99,999.00,999.0,99
2025,1,24,1,60,?9?9?9?9?9?9?9?9?9,4.6,1.3,79,100500,9999,9999,9999,0,0,0,999999,999999,999999,999999,212,3.5,99,99,9999.0,99999,9,999999999,999.0,0.999,999,99,999.00,999.0,99
2025,1,24,2,60,?9?9?9?9?9?9?9?9?9,4.1,1.0,80,100500,9999,9999,9999,0,0,0,999999,999999,999999,999999,192,3.1,99,99,9999.0,99999,9,999999999,999.0,0.999,999,99,999.00,999.0,99
2025,1,24,3,60,?9?9?9?9?9?9?9?9?9,3.8,0.9,81,100500,9999,9999,9999,0,0,0,999999,999999,999999,999999,176,2.9,99,99,9999.0,99999,9,999999999,999.0,0.999,999,99,999.00,999.0,99
2025,1,24,4,60,?9?9?9?9?9?9?9?9?9,3.7,1.0,82,100500,9999,9999,9999,0,0,0,999999,999999,999999,999999,185,2.7,99,99,9999.0,99999,9,999999999,999.0,0.999,999,99,999.00,999.0,99
2025,1,24,5,60,?9?9?9?9?9?9?9?9?9,3.1,0.4,82,100500,9999,9999,9999,0,0,0,999999,999999,999999,999999,190,2.5,99,99,9999.0,99999,9,999999999,999.0,0.999,999,99,999.00,999.0,99
2025,1,24,6,60,?9?9?9?9?9?9?9?9?9,3.3,0.6,82,100500,9999,9999,9999,0,0,0,999999,999999,999999,999999,200,3.0,99,99,9999.0,99999,9,999999999,999.0,0.999,999,99,999.00,999.0,99
2025,1,24,7,60,?9?9?9?9?9?9?9?9?9,3.8,1.3,84,100500,9999,9999,9999,0,0,0,999999,999999,999999,999999,209,2.9,99,99,9999.0,99999,9,999999999,999.0,0.999,999,99,999.00,999.0,99
2025,1,24,8,60,?9?9?9?9?9?9?9?9?9,4.1,2.0,86,100500,9999,9999,9999,0,0,0,999999,999999,999999,999999,197,2.8,99,99,9999.0,99999,9,999999999,999.0,0.999,999,99,999.00,999.0,99
2025,1,24,9,60,?9?9?9?9?9?9?9?9?9,4.5,2.5,87,100500,9999,9999,9999,0,0,0,999999,999999,999999,999999,210,3.5,99,99,9999.0,99999,9,999999999,999.0,0.999,999,99,999.00,999.0,99
2025,1,24,10,60,?9?9?9?9?9?9?9?9?9,4.1,2.0,86,100500,9999,9999,9999,37,7,36,999999,999999,999999,999999,196,3.2,99,99,9999.0,99999,9,999999999,999.0,0.999,999,99,999.00,999.0,99
2025,1,24,11,60,?9?9?9?9?9?9?9?9?9,5.0,2.5,84,100500,9999,9999,9999,140,180,102,999999,999999,999999,999999,209,4.2,99,99,9999.0,99999,9,999999999,999.0,0.999,999,99,999.00,999.0,99
2025,1,24,12,60,?9?9?9?9?9?9?9?9?9,6.5,3.1,79,100500,9999,9999,9999,218,343,121,999999,999999,999999,999999,206,4.5,99,99,9999.0,99999,9,999999999,999.0,0.999,999,99,999.00,999.0,99
2025,1,24,13,60,?9?9?9?9?9?9?9?9?9,6.9,3.0,76,100500,9999,9999,9999,202,164,151,999999,999999,999999,999999,176,4.5,99,99,9999.0,99999,9,999999999,999.0,0.999,999,99,999.00,999.0,99
2025,1,24,14,60,?9?9?9?9?9?9?9?9?9,7.7,3.3,74,100500,9999,9999,9999,256,454,117,999999,999999,999999,999999,196,5.1,99,99,9999.0,99999,9,999999999,999.0,0.999,999,99,999.00,999.0,99
2025,1,24,15,60,?9?9?9?9?9?9?9?9?9,7.9,3.2,72,100400,9999,9999,9999,204,360,110,999999,999999,999999,999999,185,4.6,99,99,9999.0,99999,9,999999999,999.0,0.999,999,99,999.00,999.0,99
2025,1,24,16,60,?9?9?9?9?9?9?9?9?9,8.2,3.6,73,100300,9999,9999,9999,88,46,80,999999,999999,999999,999999,185,4.7,99,99,9999.0,99999,9,999999999,999.0,0.999,999,99,999.00,999.0,99
2025,1,24,17,60,?9?9?9?9?9?9?9?9?9,8.3,3.8,73,100200,9999,9999,9999,36,68,31,999999,999999,999999,999999,164,4.5,99,99,9999.0,99999,9,999999999,999.0,0.999,999,99,999.00,999.0,99
2025,1,24,18,60,?9?9?9?9?9?9?9?9?9,8.3,4.0,74,100200,9999,9999,9999,1,0,1,999999,999999,999999,999999,164,4.2,99,99,9999.0,99999,9,999999999,999.0,0.999,999,99,999.00,999.0,99
2025,1,24,19,60,?9?9?9?9?9?9?9?9?9,8.0,4.5,78,100100,9999,9999,9999,0,0,0,999999,999999,999999,999999,189,4.4,99,99,9999.0,99999,9,999999999,999.0,0.999,999,99,999.00,999.0,99
2025,1,24,20,60,?9?9?9?9?9?9?9?9?9,7.8,5.3,84,100100,9999,9999,9999,0,0,0,999999,999999,999999,999999,178,3.5,99,99,9999.0,99999,9,999999999,999.0,0.999,999,99,999.00,999.0,99
2025,1,24,21,60,?9?9?9?9?9?9?9?9?9,7.9,5.9,87,100100,9999,9999,9999,0,0,0,999999,999999,999999,999999,191,3.6,99,99,9999.0,99999,9,999999999,999.0,0.999,999,99,999.00,999.0,99
2025,1,24,22,60,?9?9?9?9?9?9?9?9?9,8.0,6.1,88,100100,9999,9999,9999,0,0,0,999999,999999,999999,999999,194,4.0,99,99,9999.0,99999,9,999999999,999.0,0.999,999,99,999.00,999.0,99
2025,1,24,23,60,?9?9?9?9?9?9?9?9?9,7.8,6.1,89,100100,9999,9999,9999,0,0,0,999999,999999,999999,999999,203,3.3,99,99,9999.0,99999,9,999999999,999.0,0.999,999,99,999.00,999.0,99
2025,1,24,24,60,?9?9?9?9?9?9?9?9?9,7.8,6.2,90,100200,9999,9999,9999,0,0,0,999999,999999,999999,999999,211,3.5,99,99,9999.0,99999,9,999999999,999.0,0.999,999,99,999.00,999.0,99
2025,1,25,1,60,?9?9?9?9?9?9?9?9?9,7.8,6.1,89,100200,9999,9999,9999,0,0,0,999999,999999,999999,999999,212,3.3,99,99,9999.0,99999,9,999999999,999.0,0.999,999,99,999.00,999.0,99
2025,1,25,2,60,?9?9?9?9?9?9?9?9?9,7.9,6.2,89,100200,9999,9999,9999,0,0,0,999999,999999,999999,999999,214,3.6,99,99,9999.0,99999,9,999999999,999.0,0.999,999,99,999.00,999.0,99
2025,1,25,3,60,?9?9?9?9?9?9?9?9?9,7.8,6.1,89,100200,9999,9999,9999,0,0,0,999999,999999,999999,999999,196,3.1,99,99,9999.0,99999,9,999999999,999.0,0.999,999,99,999.00,999.0,99
2025,1,25,4,60,?9?9?9?9?9?9?9?9?9,7.9,6.0,88,100300,9999,9999,9999,0,0,0,999999,999999,999999,999999,195,2.7,99,99,9999.0,99999,9,999999999,999.0,0.999,999,99,999.00,999.0,99
2025,1,25,5,60,?9?9?9?9?9?9?9?9?9,7.6,5.6,87,100300,9999,9999,9999,0,0,0,999999,999999,999999,999999,174,2.5,99,99,9999.0,99999,9,999999999,999.0,0.999,999,99,999.00,999.0,99
2025,1,25,6,60,?9?9?9?9?9?9?9?9?9,7.7,5.9,88,100200,9999,9999,9999,0,0,0,999999,999999,999999,999999,154,2.5,99,99,9999.0,99999,9,999999999,999.0,0.999,999,99,999.00,999.0,99
2025,1,25,7,60,?9?9?9?9?9?9?9?9?9,7.9,6.0,88,100200,9999,9999,9999,0,0,0,999999,999999,999999,999999,160,2.5,99,99,9999.0,99999,9,999999999,999.0,0.999,999,99,999.00,999.0,99
2025,1,25,8,60,?9?9?9?9?9?9?9?9?9,8.3,6.1,86,100100,9999,9999,9999,0,0,0,999999,999999,999999,999999,164,2.7,99,99,9999.0,99999,9,999999999,999.0,0.999,999,99,999.00,999.0,99
2025,1,25,9,60,?9?9?9?9?9?9?9?9?9,8.4,6.0,85,100100,9999,9999,9999,0,0,0,999999,999999,999999,999999,163,2.9,99,99,9999.0,99999,9,999999999,999.0,0.999,999,99,999.00,999.0,99
2025,1,25,10,60,?9?9?9?9?9?9?9?9?9,9.5,6.4,81,100100,9999,9999,9999,4,0,4,999999,999999,999999,999999,181,3.7,99,99,9999.0,99999,9,999999999,999.0,0.999,999,99,999.00,999.0,99
2025,1,25,11,60,?9?9?9?9?9?9?9?9?9,9.9,6.2,78,100000,9999,9999,9999,24,1,24,999999,999999,999999,999999,185,4.4,99,99,9999.0,99999,9,999999999,999.0,0.999,999,99,999.00,999.0,99
2025,1,25,12,60,?9?9?9?9?9?9?9?9?9,10.9,6.6,75,100000,9999,9999,9999,62,3,61,999999,999999,999999,999999,187,4.1,99,99,9999.0,99999,9,999999999,999.0,0.999,999,99,999.00,999.0,99
2025,1,25,13,60,?9?9?9?9?9?9?9?9?9,11.4,6.1,70,100000,9999,9999,9999,79,4,78,999999,999999,999999,999999,176,4.2,99,99,9999.0,99999,9,999999999,999.0,0.999,999,99,999.00,999.0,99
2025,1,25,14,60,?9?9?9?9?9?9?9?9?9,12.2,5.6,64,100000,9999,9999,9999,126,18,121,999999,999999,999999,999999,182,4.7,99,99,9999.0,99999,9,999999999,999.0,0.999,999,99,999.00,999.0,99
2025,1,25,15,60,?9?9?9?9?9?9?9?9?9,13.8,5.1,56,99900,9999,9999,9999,184,230,124,999999,999999,999999,999999,202,4.5,99,99,9999.0,99999,9,999999999,999.0,0.999,999,99,999.00,999.0,99
2025,1,25,16,60,?9?9?9?9?9?9?9?9?9,14.4,4.6,52,100000,9999,9999,9999,62,8,61,999999,999999,999999,999999,225,5.2,99,99,9999.0,99999,9,999999999,999.0,0.999,999,99,999.00,999.0,99
2025,1,25,17,60,?9?9?9?9?9?9?9?9?9,14.5,4.8,52,100000,9999,9999,9999,16,3,16,999999,999999,999999,999999,213,4.3,99,99,9999.0,99999,9,999999999,999.0,0.999,999,99,999.00,999.0,99
2025,1,25,18,60,?9?9?9?9?9?9?9?9?9,14.3,4.7,53,100000,9999,9999,9999,1,0,1,999999,999999,999999,999999,221,3.6,99,99,9999.0,99999,9,999999999,999.0,0.999,999,99,999.00,999.0,99
2025,1,25,19,60,?9?9?9?9?9?9?9?9?9,14.1,4.7,53,100100,9999,9999,9999,0,0,0,999999,999999,999999,999999,222,3.1,99,99,9999.0,99999,9,999999999,999.0,0.999,999,99,999.00,999.0,99
2025,1,25,20,60,?9?9?9?9?9?9?9?9?9,12.9,4.8,58,100100,9999,9999,9999,0,0,0,999999,999999,999999,999999,247,2.3,99,99,9999.0,99999,9,999999999,999.0,0.999,999,99,999.00,999.0,99
2025,1,25,21,60,?9?9?9?9?9?9?9?9?9,11.5,6.3,70,100200,9999,9999,9999,0,0,0,999999,999999,999999,999999,291,3.9,99,99,9999.0,99999,9,999999999,999.0,0.999,999,99,999.00,999.0,99
2025,1,25,22,60,?9?9?9?9?9?9?9?9?9,10.5,7.7,83,100300,9999,9999,9999,0,0,0,999999,999999,999999,999999,310,4.4,99,99,9999.0,99999,9,999999999,999.0,0.999,999,99,999.00,999.0,99
2025,1,25,23,60,?9?9?9?9?9?9?9?9?9,9.5,7.4,87,100400,9999,9999,9999,0,0,0,999999,999999,999999,999999,317,3.3,99,99,9999.0,99999,9,999999999,999.0,0.999,999,99,999.00,999.0,99
2025,1,25,24,60,?9?9?9?9?9?9?9?9?9,8.7,6.6,87,100400,9999,9999,9999,0,0,0,999999,999999,999999,999999,333,2.4,99,99,9999.0,99999,9,999999999,999.0,0.999,999,99,999.00,999.0,99
2025,1,26,1,60,?9?9?9?9?9?9?9?9?9,8.1,6.2,88,100400,9999,9999,9999,0,0,0,999999,999999,999999,999999,52,1.2,99,99,9999.0,99999,9,999999999,999.0,0.999,999,99,999.00,999.0,99
2025,1,26,2,60,?9?9?9?9?9?9?9?9?9,7.8,6.7,93,100400,9999,9999,9999,0,0,0,999999,999999,999999,999999,75,2.3,99,99,9999.0,99999,9,999999999,999.0,0.999,999,99,999.00,999.0,99
2025,1,26,3,60,?9?9?9?9?9?9?9?9?9,7.7,7.1,96,100300,9999,9999,9999,0,0,0,999999,999999,999999,999999,59,1.9,99,99,9999.0,99999,9,999999999,999.0,0.999,999,99,999.00,999.0,99
2025,1,26,4,60,?9?9?9?9?9?9?9?9?9,7.9,7.3,96,100300,9999,9999,9999,0,0,0,999999,999999,999999,999999,49,2.5,99,99,9999.0,99999,9,999999999,999.0,0.999,999,99,999.00,999.0,99
2025,1,26,5,60,?9?9?9?9?9?9?9?9?9,7.8,6.9,94,100300,9999,9999,9999,0,0,0,999999,999999,999999,999999,51,1.8,99,99,9999.0,99999,9,999999999,999.0,0.999,999,99,999.00,999.0,99
2025,1,26,6,60,?9?9?9?9?9?9?9?9?9,7.4,6.0,91,100200,9999,9999,9999,0,0,0,999999,999999,999999,999999,112,3.1,99,99,9999.0,99999,9,999999999,999.0,0.999,999,99,999.00,999.0,99
2025,1,26,7,60,?9?9?9?9?9?9?9?9?9,7.1,5.4,89,100200,9999,9999,9999,0,0,0,999999,999999,999999,999999,114,2.5,99,99,9999.0,99999,9,999999999,999.0,0.999,999,99,999.00,999.0,99
2025,1,26,8,60,?9?9?9?9?9?9?9?9?9,6.4,4.8,89,100100,9999,9999,9999,0,0,0,999999,999999,999999,999999,123,2.8,99,99,9999.0,99999,9,999999999,999.0,0.999,999,99,999.00,999.0,99
2025,1,26,9,60,?9?9?9?9?9?9?9?9?9,6.0,4.6,91,100100,9999,9999,9999,0,0,0,999999,999999,999999,999999,120,2.5,99,99,9999.0,99999,9,999999999,999.0,0.999,999,99,999.00,999.0,99
2025,1,26,10,60,?9?9?9?9?9?9?9?9?9,6.1,4.7,91,100000,9999,9999,9999,27,3,26,999999,999999,999999,999999,144,3.0,99,99,9999.0,99999,9,999999999,999.0,0.999,999,99,999.00,999.0,99
2025,1,26,11,60,?9?9?9?9?9?9?9?9?9,7.0,5.1,88,100000,9999,9999,9999,98,27,92,999999,999999,999999,999999,179,2.7,99,99,9999.0,99999,9,999999999,999.0,0.999,999,99,999.00,999.0,99
2025,1,26,12,60,?9?9?9?9?9?9?9?9?9,9.0,6.3,83,100000,9999,9999,9999,89,6,88,999999,999999,999999,999999,212,3.8,99,99,9999.0,99999,9,999999999,999.0,0.999,999,99,999.00,999.0,99
2025,1,26,13,60,?9?9?9?9?9?9?9?9?9,9.6,6.3,80,100000,9999,9999,9999,155,41,141,999999,999999,999999,999999,224,4.1,99,99,9999.0,99999,9,999999999,999.0,0.999,999,99,999.00,999.0,99
2025,1,26,14,60,?9?9?9?9?9?9?9?9?9,10.5,6.9,78,100000,9999,9999,9999,193,134,151,999999,999999,999999,999999,228,3.7,99,99,9999.0,99999,9,999999999,999.0,0.999,999,99,999.00,999.0,99
2025,1,26,15,60,?9?9?9?9?9?9?9?9?9,10.6,6.6,76,99900,9999,9999,9999,123,32,114,999999,999999,999999,999999,224,3.5,99,99,9999.0,99999,9,999999999,999.0,0.999,999,99,999.00,999.0,99
2025,1,26,16,60,?9?9?9?9?9?9?9?9?9,9.7,5.6,76,100000,9999,9999,9999,56,6,55,999999,999999,999999,999999,263,4.9,99,99,9999.0,99999,9,999999999,999.0,0.999,999,99,999.00,999.0,99
2025,1,26,17,60,?9?9?9?9?9?9?9?9?9,8.7,5.7,82,100000,9999,9999,9999,12,2,12,999999,999999,999999,999999,251,3.0,99,99,9999.0,99999,9,999999999,999.0,0.999,999,99,999.00,999.0,99
2025,1,26,18,60,?9?9?9?9?9?9?9?9?9,8.7,6.5,86,100000,9999,9999,9999,1,0,1,999999,999999,999999,999999,247,3.5,99,99,9999.0,99999,9,999999999,999.0,0.999,999,99,999.00,999.0,99
2025,1,26,19,60,?9?9?9?9?9?9?9?9?9,7.8,5.8,87,100100,9999,9999,9999,0,0,0,999999,999999,999999,999999,250,4.4,99,99,9999.0,99999,9,999999999,999.0,0.999,999,99,999.00,999.0,99
2025,1,26,20,60,?9?9?9?9?9?9?9?9?9,6.8,5.1,89,100100,9999,9999,9999,0,0,0,999999,999999,999999,999999,276,5.3,99,99,9999.0,99999,9,999999999,999.0,0.999,999,99,999.00,999.0,99
2025,1,26,21,60,?9?9?9?9?9?9?9?9?9,6.0,4.5,90,100300,9999,9999,9999,0,0,0,999999,999999,999999,999999,270,3.2,99,99,9999.0,99999,9,999999999,999.0,0.999,999,99,999.00,999.0,99
2025,1,26,22,60,?9?9?9?9?9?9?9?9?9,5.7,4.3,90,100200,9999,9999,9999,0,0,0,999999,999999,999999,999999,236,2.7,99,99,9999.0,99999,9,999999999,999.0,0.999,999,99,999.00,999.0,99
2025,1,26,23,60,?9?9?9?9?9?9?9?9?9,5.1,3.7,91,100200,9999,9999,9999,0,0,0,999999,999999,999999,999999,242,1.0,99,99,9999.0,99999,9,999999999,999.0,0.999,999,99,999.00,999.0,99
2025,1,26,24,60,?9?9?9?9?9?9?9?9?9,4.3,3.3,93,100200,9999,9999,9999,0,0,0,999999,999999,999999,999999,163,1.9,99,99,9999.0,99999,9,999999999,999.0,0.999,999,99,999.00,999.0,99
2025,1,27,1,60,?9?9?9?9?9?9?9?9?9,4.2,3.5,95,100100,9999,9999,9999,0,0,0,999999,999999,999999,999999,129,2.3,99,99,9999.0,99999,9,999999999,999.0,0.999,999,99,999.00,999.0,99
2025,1,27,2,60,?9?9?9?9?9?9?9?9?9,4.4,3.5,94,100000,9999,9999,9999,0,0,0,999999,999999,999999,999999,149,2.7,99,99,9999.0,99999,9,999999999,999.0,0.999,999,99,999.00,999.0,99
2025,1,27,3,60,?9?9?9?9?9?9?9?9?9,4.6,3.2,91,100000,9999,9999,9999,0,0,0,999999,999999,999999,999999,148,2.6,99,99,9999.0,99999,9,999999999,999.0,0.999,999,99,999.00,999.0,99
2025,1,27,4,60,?9?9?9?9?9?9?9?9?9,4.9,2.8,86,99900,9999,9999,9999,0,0,0,999999,999999,999999,999999,131,2.9,99,99,9999.0,99999,9,999999999,999.0,0.999,999,99,999.00,999.0,99
2025,1,27,5,60,?9?9?9?9?9?9?9?9?9,5.3,2.6,83,99800,9999,9999,9999,0,0,0,999999,999999,999999,999999,131,3.4,99,99,9999.0,99999,9,999999999,999.0,0.999,999,99,999.00,999.0,99
2025,1,27,6,60,?9?9?9?9?9?9?9?9?9,5.7,2.4,80,99700,9999,9999,9999,0,0,0,999999,999999,999999,999999,137,3.6,99,99,9999.0,99999,9,999999999,999.0,0.999,999,99,999.00,999.0,99
2025,1,27,7,60,?9?9?9?9?9?9?9?9?9,5.9,2.1,77,99600,9999,9999,9999,0,0,0,999999,999999,999999,999999,151,4.2,99,99,9999.0,99999,9,999999999,999.0,0.999,999,99,999.00,999.0,99
2025,1,27,8,60,?9?9?9?9?9?9?9?9?9,6.5,2.2,74,99500,9999,9999,9999,0,0,0,999999,999999,999999,999999,145,4.6,99,99,9999.0,99999,9,999999999,999.0,0.999,999,99,999.00,999.0,99
2025,1,27,9,60,?9?9?9?9?9?9?9?9?9,6.2,2.4,77,99400,9999,9999,9999,0,0,0,999999,999999,999999,999999,156,3.8,99,99,9999.0,99999,9,999999999,999.0,0.999,999,99,999.00,999.0,99
2025,1,27,10,60,?9?9?9?9?9?9?9?9?9,6.1,3.6,84,99400,9999,9999,9999,30,4,29,999999,999999,999999,999999,148,4.0,99,99,9999.0,99999,9,999999999,999.0,0.999,999,99,999.00,999.0,99
2025,1,27,11,60,?9?9?9?9?9?9?9?9?9,7.1,5.3,88,99300,9999,9999,9999,79,9,77,999999,999999,999999,999999,150,4.3,99,99,9999.0,99999,9,999999999,999.0,0.999,999,99,999.00,999.0,99
2025,1,27,12,60,?9?9?9?9?9?9?9?9?9,9.1,6.6,84,99200,9999,9999,9999,122,19,116,999999,999999,999999,999999,163,4.8,99,99,9999.0,99999,9,999999999,999.0,0.999,999,99,999.00,999.0,99
2025,1,27,13,60,?9?9?9?9?9?9?9?9?9,10.6,6.7,77,99200,9999,9999,9999,152,36,141,999999,999999,999999,999999,198,6.0,99,99,9999.0,99999,9,999999999,999.0,0.999,999,99,999.00,999.0,99
2025,1,27,14,60,?9?9?9?9?9?9?9?9?9,11.2,6.4,72,99200,9999,9999,9999,87,5,85,999999,999999,999999,999999,193,5.1,99,99,9999.0,99999,9,999999999,999.0,0.999,999,99,999.00,999.0,99
2025,1,27,15,60,?9?9?9?9?9?9?9?9?9,11.5,6.4,71,99200,9999,9999,9999,61,3,60,999999,999999,999999,999999,188,4.2,99,99,9999.0,99999,9,999999999,999.0,0.999,999,99,999.00,999.0,99
2025,1,27,16,60,?9?9?9?9?9?9?9?9?9,11.0,6.6,74,99200,9999,9999,9999,23,1,23,999999,999999,999999,999999,178,3.6,99,99,9999.0,99999,9,999999999,999.0,0.999,999,99,999.00,999.0,99
2025,1,27,17,60,?9?9?9?9?9?9?9?9?9,10.9,7.3,78,99200,9999,9999,9999,26,7,25,999999,999999,999999,999999,152,3.4,99,99,9999.0,99999,9,999999999,999.0,0.999,999,99,999.00,999.0,99
2025,1,27,18,60,?9?9?9?9?9?9?9?9?9,11.2,7.5,78,99200,9999,9999,9999,1,0,1,999999,999999,999999,999999,178,3.4,99,99,9999.0,99999,9,999999999,999.0,0.999,999,99,999.00,999.0,99
2025,1,27,19,60,?9?9?9?9?9?9?9?9?9,11.0,7.4,78,99100,9999,9999,9999,0,0,0,999999,999999,999999,999999,165,3.4,99,99,9999.0,99999,9,999999999,999.0,0.999,999,99,999.00,999.0,99
2025,1,27,20,60,?9?9?9?9?9?9?9?9?9,10.4,7.4,82,99200,9999,9999,9999,0,0,0,999999,999999,999999,999999,208,2.0,99,99,9999.0,99999,9,999999999,999.0,0.999,999,99,999.00,999.0,99
2025,1,27,21,60,?9?9?9?9?9?9?9?9?9,10.3,8.1,86,99200,9999,9999,9999,0,0,0,999999,999999,999999,999999,193,2.6,99,99,9999.0,99999,9,999999999,999.0,0.999,999,99,999.00,999.0,99
2025,1,27,22,60,?9?9?9?9?9?9?9?9?9,9.7,8.1,90,99300,9999,9999,9999,0,0,0,999999,999999,999999,999999,146,2.7,99,99,9999.0,99999,9,999999999,999.0,0.999,999,99,999.00,999.0,99
2025,1,27,23,60,?9?9?9?9?9?9?9?9?9,10.0,8.2,89,99300,9999,9999,9999,0,0,0,999999,999999,999999,999999,177,2.9,99,99,9999.0,99999,9,999999999,999.0,0.999,999,99,999.00,999.0,99
2025,1,27,24,60,?9?9?9?9?9?9?9?9?9,9.8,7.7,87,99300,9999,9999,9999,0,0,0,999999,999999,999999,999999,190,2.8,99,99,9999.0,99999,9,999999999,999.0,0.999,999,99,999.00,999.0,99
2025,1,28,1,60,?9?9?9?9?9?9?9?9?9,8.9,7.1,88,99400,9999,9999,9999,0,0,0,999999,999999,999999,999999,163,2.6,99,99,9999.0,99999,9,999999999,999.0,0.999,999,99,999.00,999.0,99
2025,1,28,2,60,?9?9?9?9?9?9?9?9?9,9.0,7.4,90,99400,9999,9999,9999,0,0,0,999999,999999,999999,999999,161,3.2,99,99,9999.0,99999,9,999999999,999.0,0.999,999,99,999.00,999.0,99
2025,1,28,3,60,?9?9?9?9?9?9?9?9?9,8.8,6.8,87,99400,9999,9999,9999,0,0,0,999999,999999,999999,999999,163,2.8,99,99,9999.0,99999,9,999999999,999.0,0.999,999,99,999.00,999.0,99
2025,1,28,4,60,?9?9?9?9?9?9?9?9?9,8.3,5.8,84,99300,9999,9999,9999,0,0,0,999999,999999,999999,999999,171,2.6,99,99,9999.0,99999,9,999999999,999.0,0.999,999,99,999.00,999.0,99
2025,1,28,5,60,?9?9?9?9?9?9?9?9?9,7.5,5.2,85,99400,9999,9999,9999,0,0,0,999999,999999,999999,999999,166,2.3,99,99,9999.0,99999,9,999999999,999.0,0.999,999,99,999.00,999.0,99
2025,1,28,6,60,?9?9?9?9?9?9?9?9?9,7.4,5.2,86,99300,9999,9999,9999,0,0,0,999999,999999,999999,999999,162,2.7,99,99,9999.0,99999,9,999999999,999.0,0.999,999,99,999.00,999.0,99
2025,1,28,7,60,?9?9?9?9?9?9?9?9?9,6.9,4.8,86,99300,9999,9999,9999,0,0,0,999999,999999,999999,999999,162,3.1,99,99,9999.0,99999,9,999999999,999.0,0.999,999,99,999.00,999.0,99
2025,1,28,8,60,?9?9?9?9?9?9?9?9?9,7.0,4.7,86,99300,9999,9999,9999,0,0,0,999999,999999,999999,999999,166,2.5,99,99,9999.0,99999,9,999999999,999.0,0.999,999,99,999.00,999.0,99
2025,1,28,9,60,?9?9?9?9?9?9?9?9?9,6.6,4.4,86,99300,9999,9999,9999,0,0,0,999999,999999,999999,999999,162,2.1,99,99,9999.0,99999,9,999999999,999.0,0.999,999,99,999.00,999.0,99
2025,1,28,10,60,?9?9?9?9?9?9?9?9?9,6.9,4.9,87,99300,9999,9999,9999,17,1,17,999999,999999,999999,999999,194,2.0,99,99,9999.0,99999,9,999999999,999.0,0.999,999,99,999.00,999.0,99
2025,1,28,11,60,?9?9?9?9?9?9?9?9?9,7.3,5.0,86,99400,9999,9999,9999,39,2,39,999999,999999,999999,999999,173,1.3,99,99,9999.0,99999,9,999999999,999.0,0.999,999,99,999.00,999.0,99
2025,1,28,12,60,?9?9?9?9?9?9?9?9?9,7.8,5.1,83,99400,9999,9999,9999,62,3,61,999999,999999,999999,999999,165,2.0,99,99,9999.0,99999,9,999999999,999.0,0.999,999,99,999.00,999.0,99
2025,1,28,13,60,?9?9?9?9?9?9?9?9?9,8.3,5.4,82,99300,9999,9999,9999,113,8,111,999999,999999,999999,999999,201,1.2,99,99,9999.0,99999,9,999999999,999.0,0.999,999,99,999.00,999.0,99
2025,1,28,14,60,?9?9?9?9?9?9?9?9?9,8.9,5.7,80,99300,9999,9999,9999,112,9,110,999999,999999,999999,999999,228,2.3,99,99,9999.0,99999,9,999999999,999.0,0.999,999,99,999.00,999.0,99
2025,1,28,15,60,?9?9?9?9?9?9?9?9?9,8.5,5.2,80,99300,9999,9999,9999,48,2,47,999999,999999,999999,999999,206,1.9,99,99,9999.0,99999,9,999999999,999.0,0.999,999,99,999.00,999.0,99
2025,1,28,16,60,?9?9?9?9?9?9?9?9?9,7.8,5.7,86,99300,9999,9999,9999,56,5,55,999999,999999,999999,999999,229,1.5,99,99,9999.0,99999,9,999999999,999.0,0.999,999,99,999.00,999.0,99
2025,1,28,17,60,?9?9?9?9?9?9?9?9?9,7.7,6.7,93,99300,9999,9999,9999,32,12,31,999999,999999,999999,999999,160,1.5,99,99,9999.0,99999,9,999999999,999.0,0.999,999,99,999.00,999.0,99
2025,1,28,18,60,?9?9?9?9?9?9?9?9?9,7.6,6.9,96,99300,9999,9999,9999,2,0,2,999999,999999,999999,999999,206,1.7,99,99,9999.0,99999,9,999999999,999.0,0.999,999,99,999.00,999.0,99
2025,1,28,19,60,?9?9?9?9?9?9?9?9?9,7.5,7.0,97,99300,9999,9999,9999,0,0,0,999999,999999,999999,999999,164,2.0,99,99,9999.0,99999,9,999999999,999.0,0.999,999,99,999.00,999.0,99
2025,1,28,20,60,?9?9?9?9?9?9?9?9?9,7.5,7.1,97,99300,9999,9999,9999,0,0,0,999999,999999,999999,999999,208,2.2,99,99,9999.0,99999,9,999999999,999.0,0.999,999,99,999.00,999.0,99
2025,1,28,21,60,?9?9?9?9?9?9?9?9?9,7.4,7.0,97,99400,9999,9999,9999,0,0,0,999999,999999,999999,999999,205,1.9,99,99,9999.0,99999,9,999999999,999.0,0.999,999,99,999.00,999.0,99
2025,1,28,22,60,?9?9?9?9?9?9?9?9?9,7.4,6.9,97,99400,9999,9999,9999,0,0,0,999999,999999,999999,999999,197,2.0,99,99,9999.0,99999,9,999999999,999.0,0.999,999,99,999.00,999.0,99
2025,1,28,23,60,?9?9?9?9?9?9?9?9?9,7.1,6.6,97,99400,9999,9999,9999,0,0,0,999999,999999,999999,999999,174,2.2,99,99,9999.0,99999,9,999999999,999.0,0.999,999,99,999.00,999.0,99
2025,1,28,24,60,?9?9?9?9?9?9?9?9?9,6.7,6.1,96,99400,9999,9999,9999,0,0,0,999999,999999,999999,999999,183,2.0,99,99,9999.0,99999,9,999999999,999.0,0.999,999,99,999.00,999.0,99
2025,1,29,1,60,?9?9?9?9?9?9?9?9?9,6.2,5.6,96,99300,9999,9999,9999,0,0,0,999999,999999,999999,999999,187,2.3,99,99,9999.0,99999,9,999999999,999.0,0.999,999,99,999.00,999.0,99
2025,1,29,2,60,?9?9?9?9?9?9?9?9?9,5.8,5.2,96,99400,9999,9999,9999,0,0,0,999999,999999,999999,999999,196,2.8,99,99,9999.0,99999,9,999999999,999.0,0.999,999,99,999.00,999.0,99
2025,1,29,3,60,?9?9?9?9?9?9?9?9?9,5.5,4.8,95,99400,9999,9999,9999,0,0,0,999999,999999,999999,999999,194,3.3,99,99,9999.0,99999,9,999999999,999.0,0.999,999,99,999.00,999.0,99
2025,1,29,4,60,?9?9?9?9?9?9?9?9?9,5.4,4.6,94,99400,9999,9999,9999,0,0,0,999999,999999,999999,999999,192,2.9,99,99,9999.0,99999,9,999999999,999.0,0.999,999,99,999.00,999.0,99
2025,1,29,5,60,?9?9?9?9?9?9?9?9?9,5.5,4.7,94,99400,9999,9999,9999,0,0,0,999999,999999,999999,999999,177,2.8,99,99,9999.0,99999,9,999999999,999.0,0.999,999,99,999.00,999.0,99
2025,1,29,6,60,?9?9?9?9?9?9?9?9?9,5.6,4.8,94,99400,9999,9999,9999,0,0,0,999999,999999,999999,999999,162,2.5,99,99,9999.0,99999,9,999999999,999.0,0.999,999,99,999.00,999.0,99
2025,1,29,7,60,?9?9?9?9?9?9?9?9?9,5.7,4.8,94,99400,9999,9999,9999,0,0,0,999999,999999,999999,999999,179,1.9,99,99,9999.0,99999,9,999999999,999.0,0.999,999,99,999.00,999.0,99
2025,1,29,8,60,?9?9?9?9?9?9?9?9?9,6.3,5.0,91,99400,9999,9999,9999,0,0,0,999999,999999,999999,999999,189,2.9,99,99,9999.0,99999,9,999999999,999.0,0.999,999,99,999.00,999.0,99
2025,1,29,9,60,?9?9?9?9?9?9?9?9?9,6.8,5.0,88,99400,9999,9999,9999,0,0,0,999999,999999,999999,999999,189,3.6,99,99,9999.0,99999,9,999999999,999.0,0.999,999,99,999.00,999.0,99
2025,1,29,10,60,?9?9?9?9?9?9?9?9?9,7.3,5.1,86,99500,9999,9999,9999,23,2,23,999999,999999,999999,999999,191,3.9,99,99,9999.0,99999,9,999999999,999.0,0.999,999,99,999.00,999.0,99
2025,1,29,11,60,?9?9?9?9?9?9?9?9?9,7.8,5.3,84,99500,9999,9999,9999,91,15,88,999999,999999,999999,999999,190,3.7,99,99,9999.0,99999,9,999999999,999.0,0.999,999,99,999.00,999.0,99
2025,1,29,12,60,?9?9?9?9?9?9?9?9?9,8.6,5.6,82,99500,9999,9999,9999,92,6,90,999999,999999,999999,999999,202,4.4,99,99,9999.0,99999,9,999999999,999.0,0.999,999,99,999.00,999.0,99
2025,1,29,13,60,?9?9?9?9?9?9?9?9?9,8.1,5.6,84,99600,9999,9999,9999,58,2,58,999999,999999,999999,999999,213,4.5,99,99,9999.0,99999,9,999999999,999.0,0.999,999,99,999.00,999.0,99
2025,1,29,14,60,?9?9?9?9?9?9?9?9?9,9.4,7.2,86,99600,9999,9999,9999,126,13,121,999999,999999,999999,999999,222,5.0,99,99,9999.0,99999,9,999999999,999.0,0.999,999,99,999.00,999.0,99
2025,1,29,15,60,?9?9?9?9?9?9?9?9?9,10.7,6.8,77,99700,9999,9999,9999,190,198,134,999999,999999,999999,999999,236,6.0,99,99,9999.0,99999,9,999999999,999.0,0.999,999,99,999.00,999.0,99
2025,1,29,16,60,?9?9?9?9?9?9?9?9?9,10.3,4.7,68,99700,9999,9999,9999,106,66,93,999999,999999,999999,999999,242,6.0,99,99,9999.0,99999,9,999999999,999.0,0.999,999,99,999.00,999.0,99
2025,1,29,17,60,?9?9?9?9?9?9?9?9?9,9.8,3.8,66,99800,9999,9999,9999,30,8,30,999999,999999,999999,999999,254,6.9,99,99,9999.0,99999,9,999999999,999.0,0.999,999,99,999.00,999.0,99
2025,1,29,18,60,?9?9?9?9?9?9?9?9?9,8.8,3.2,68,99900,9999,9999,9999,1,0,1,999999,999999,999999,999999,261,7.1,99,99,9999.0,99999,9,999999999,999.0,0.999,999,99,999.00,999.0,99
2025,1,29,19,60,?9?9?9?9?9?9?9?9?9,8.5,3.4,70,100000,9999,9999,9999,0,0,0,999999,999999,999999,999999,236,5.5,99,99,9999.0,99999,9,999999999,999.0,0.999,999,99,999.00,999.0,99
2025,1,29,20,60,?9?9?9?9?9?9?9?9?9,7.8,3.2,72,100100,9999,9999,9999,0,0,0,999999,999999,999999,999999,237,5.1,99,99,9999.0,99999,9,999999999,999.0,0.999,999,99,999.00,999.0,99
2025,1,29,21,60,?9?9?9?9?9?9?9?9?9,8.1,3.9,75,100200,9999,9999,9999,0,0,0,999999,999999,999999,999999,219,4.5,99,99,9999.0,99999,9,999999999,999.0,0.999,999,99,999.00,999.0,99
2025,1,29,22,60,?9?9?9?9?9?9?9?9?9,8.1,3.9,75,100300,9999,9999,9999,0,0,0,999999,999999,999999,999999,220,4.5,99,99,9999.0,99999,9,999999999,999.0,0.999,999,99,999.00,999.0,99
2025,1,29,23,60,?9?9?9?9?9?9?9?9?9,8.0,3.8,75,100400,9999,9999,9999,0,0,0,999999,999999,999999,999999,233,4.5,99,99,9999.0,99999,9,999999999,999.0,0.999,999,99,999.00,999.0,99
2025,1,29,24,60,?9?9?9?9?9?9?9?9?9,8.0,4.0,76,100500,9999,9999,9999,0,0,0,999999,999999,999999,999999,224,3.8,99,99,9999.0,99999,9,999999999,999.0,0.999,999,99,999.00,999.0,99
2025,1,30,1,60,?9?9?9?9?9?9?9?9?9,8.0,4.2,77,100500,9999,9999,9999,0,0,0,999999,999999,999999,999999,220,4.1,99,99,9999.0,99999,9,999999999,999.0,0.999,999,99,999.00,999.0,99
2025,1,30,2,60,?9?9?9?9?9?9?9?9?9,7.6,4.1,79,100600,9999,9999,9999,0,0,0,999999,999999,999999,999999,214,3.6,99,99,9999.0,99999,9,999999999,999.0,0.999,999,99,999.00,999.0,99
2025,1,30,3,60,?9?9?9?9?9?9?9?9?9,6.4,3.5,82,100600,9999,9999,9999,0,0,0,999999,999999,999999,999999,203,2.6,99,99,9999.0,99999,9,999999999,999.0,0.999,999,99,999.00,999.0,99
2025,1,30,4,60,?9?9?9?9?9?9?9?9?9,5.3,3.1,86,100600,9999,9999,9999,0,0,0,999999,999999,999999,999999,201,2.9,99,99,9999.0,99999,9,999999999,999.0,0.999,999,99,999.00,999.0,99
2025,1,30,5,60,?9?9?9?9?9?9?9?9?9,5.1,3.3,88,100700,9999,9999,9999,0,0,0,999999,999999,999999,999999,214,3.0,99,99,9999.0,99999,9,999999999,999.0,0.999,999,99,999.00,999.0,99
2025,1,30,6,60,?9?9?9?9?9?9?9?9?9,4.5,2.6,88,100800,9999,9999,9999,0,0,0,999999,999999,999999,999999,208,2.5,99,99,9999.0,99999,9,999999999,999.0,0.999,999,99,999.00,999.0,99
2025,1,30,7,60,?9?9?9?9?9?9?9?9?9,4.0,2.2,88,100800,9999,9999,9999,0,0,0,999999,999999,999999,999999,192,2.6,99,99,9999.0,99999,9,999999999,999.0,0.999,999,99,999.00,999.0,99
2025,1,30,8,60,?9?9?9?9?9?9?9?9?9,3.7,2.1,90,100800,9999,9999,9999,0,0,0,999999,999999,999999,999999,173,2.3,99,99,9999.0,99999,9,999999999,999.0,0.999,999,99,999.00,999.0,99
2025,1,30,9,60,?9?9?9?9?9?9?9?9?9,3.7,2.2,90,100900,9999,9999,9999,0,0,0,999999,999999,999999,999999,173,2.8,99,99,9999.0,99999,9,999999999,999.0,0.999,999,99,999.00,999.0,99
2025,1,30,10,60,?9?9?9?9?9?9?9?9?9,4.6,2.8,88,100900,9999,9999,9999,22,2,22,999999,999999,999999,999999,179,2.7,99,99,9999.0,99999,9,999999999,999.0,0.999,999,99,999.00,999.0,99
2025,1,30,11,60,?9?9?9?9?9?9?9?9?9,5.5,2.9,84,101000,9999,9999,9999,114,43,104,999999,999999,999999,999999,189,2.4,99,99,9999.0,99999,9,999999999,999.0,0.999,999,99,999.00,999.0,99
2025,1,30,12,60,?9?9?9?9?9?9?9?9?9,6.2,3.1,81,101000,9999,9999,9999,193,149,147,999999,999999,999999,999999,195,2.1,99,99,9999.0,99999,9,999999999,999.0,0.999,999,99,999.00,999.0,99
2025,1,30,13,60,?9?9?9?9?9?9?9?9?9,7.2,3.7,78,101000,9999,9999,9999,209,137,163,999999,999999,999999,999999,177,2.9,99,99,9999.0,99999,9,999999999,999.0,0.999,999,99,999.00,999.0,99
2025,1,30,14,60,?9?9?9?9?9?9?9?9?9,7.5,3.7,77,101000,9999,9999,9999,173,61,152,999999,999999,999999,999999,171,2.6,99,99,9999.0,99999,9,999999999,999.0,0.999,999,99,999.00,999.0,99
2025,1,30,15,60,?9?9?9?9?9?9?9?9?9,8.3,4.3,76,101000,9999,9999,9999,167,105,137,999999,999999,999999,999999,190,2.7,99,99,9999.0,99999,9,999999999,999.0,0.999,999,99,999.00,999.0,99
2025,1,30,16,60,?9?9?9?9?9?9?9?9?9,8.7,4.1,73,101000,9999,9999,9999,127,139,99,999999,999999,999999,999999,186,2.1,99,99,9999.0,99999,9,999999999,999.0,0.999,999,99,999.00,999.0,99
2025,1,30,17,60,?9?9?9?9?9?9?9?9?9,8.6,3.7,71,101000,9999,9999,9999,39,19,37,999999,999999,999999,999999,189,1.8,99,99,9999.0,99999,9,999999999,999.0,0.999,999,99,999.00,999.0,99
2025,1,30,18,60,?9?9?9?9?9?9?9?9?9,8.1,3.6,73,101000,9999,9999,9999,2,0,2,999999,999999,999999,999999,169,2.1,99,99,9999.0,99999,9,999999999,999.0,0.999,999,99,999.00,999.0,99
2025,1,30,19,60,?9?9?9?9?9?9?9?9?9,8.1,3.8,74,101000,9999,9999,9999,0,0,0,999999,999999,999999,999999,202,2.1,99,99,9999.0,99999,9,999999999,999.0,0.999,999,99,999.00,999.0,99
2025,1,30,20,60,?9?9?9?9?9?9?9?9?9,7.7,3.9,77,101000,9999,9999,9999,0,0,0,999999,999999,999999,999999,209,1.8,99,99,9999.0,99999,9,999999999,999.0,0.999,999,99,999.00,999.0,99
2025,1,30,21,60,?9?9?9?9?9?9?9?9?9,7.8,4.5,80,101000,9999,9999,9999,0,0,0,999999,999999,999999,999999,230,1.7,99,99,9999.0,99999,9,999999999,999.0,0.999,999,99,999.00,999.0,99
2025,1,30,22,60,?9?9?9?9?9?9?9?9?9,7.9,4.6,80,101000,9999,9999,9999,0,0,0,999999,999999,999999,999999,229,1.7,99,99,9999.0,99999,9,999999999,999.0,0.999,999,99,999.00,999.0,99
2025,1,30,23,60,?9?9?9?9?9?9?9?9?9,7.6,4.8,82,101000,9999,9999,9999,0,0,0,999999,999999,999999,999999,265,2.3,99,99,9999.0,99999,9,999999999,999.0,0.999,999,99,999.00,999.0,99
2025,1,30,24,60,?9?9?9?9?9?9?9?9?9,7.1,5.1,87,101100,9999,9999,9999,0,0,0,999999,999999,999999,999999,273,2.3,99,99,9999.0,99999,9,999999999,999.0,0.999,999,99,999.00,999.0,99
2025,1,31,1,60,?9?9?9?9?9?9?9?9?9,6.4,4.9,90,101100,9999,9999,9999,0,0,0,999999,999999,999999,999999,303,4.0,99,99,9999.0,99999,9,999999999,999.0,0.999,999,99,999.00,999.0,99
2025,1,31,2,60,?9?9?9?9?9?9?9?9?9,5.6,4.3,91,101200,9999,9999,9999,0,0,0,999999,999999,999999,999999,324,5.4,99,99,9999.0,99999,9,999999999,999.0,0.999,999,99,999.00,999.0,99
2025,1,31,3,60,?9?9?9?9?9?9?9?9?9,4.5,3.3,92,101200,9999,9999,9999,0,0,0,999999,999999,999999,999999,324,3.9,99,99,9999.0,99999,9,999999999,999.0,0.999,999,99,999.00,999.0,99
2025,1,31,4,60,?9?9?9?9?9?9?9?9?9,4.5,3.4,93,101300,9999,9999,9999,0,0,0,999999,999999,999999,999999,306,3.5,99,99,9999.0,99999,9,999999999,999.0,0.999,999,99,999.00,999.0,99
2025,1,31,5,60,?9?9?9?9?9?9?9?9?9,4.6,3.7,94,101400,9999,9999,9999,0,0,0,999999,999999,999999,999999,279,4.2,99,99,9999.0,99999,9,999999999,999.0,0.999,999,99,999.00,999.0,99
2025,1,31,6,60,?9?9?9?9?9?9?9?9?9,4.5,3.6,94,101400,9999,9999,9999,0,0,0,999999,999999,999999,999999,291,4.7,99,99,9999.0,99999,9,999999999,999.0,0.999,999,99,999.00,999.0,99
2025,1,31,7,60,?9?9?9?9?9?9?9?9?9,5.0,4.0,93,101500,9999,9999,9999,0,0,0,999999,999999,999999,999999,282,4.6,99,99,9999.0,99999,9,999999999,999.0,0.999,999,99,999.00,999.0,99
2025,1,31,8,60,?9?9?9?9?9?9?9?9?9,4.7,3.2,90,101600,9999,9999,9999,0,0,0,999999,999999,999999,999999,290,5.7,99,99,9999.0,99999,9,999999999,999.0,0.999,999,99,999.00,999.0,99
2025,1,31,9,60,?9?9?9?9?9?9?9?9?9,4.2,2.5,88,101700,9999,9999,9999,0,0,0,999999,999999,999999,999999,282,4.9,99,99,9999.0,99999,9,999999999,999.0,0.999,999,99,999.00,999.0,99
2025,1,31,10,60,?9?9?9?9?9?9?9?9?9,4.0,2.5,90,101700,9999,9999,9999,29,3,29,999999,999999,999999,999999,283,4.9,99,99,9999.0,99999,9,999999999,999.0,0.999,999,99,999.00,999.0,99
2025,1,31,11,60,?9?9?9?9?9?9?9?9?9,4.0,2.2,88,101800,9999,9999,9999,103,23,98,999999,999999,999999,999999,279,5.1,99,99,9999.0,99999,9,999999999,999.0,0.999,999,99,999.00,999.0,99
2025,1,31,12,60,?9?9?9?9?9?9?9?9?9,4.5,2.3,86,101900,9999,9999,9999,130,20,124,999999,999999,999999,999999,277,5.1,99,99,9999.0,99999,9,999999999,999.0,0.999,999,99,999.00,999.0,99
2025,1,31,13,60,?9?9?9?9?9?9?9?9?9,4.9,2.1,82,102000,9999,9999,9999,187,76,161,999999,999999,999999,999999,277,5.8,99,99,9999.0,99999,9,999999999,999.0,0.999,999,99,999.00,999.0,99
2025,1,31,14,60,?9?9?9?9?9?9?9?9?9,5.8,1.7,75,102000,9999,9999,9999,192,94,160,999999,999999,999999,999999,272,6.4,99,99,9999.0,99999,9,999999999,999.0,0.999,999,99,999.00,999.0,99
2025,1,31,15,60,?9?9?9?9?9?9?9?9?9,6.6,1.4,70,102000,9999,9999,9999,176,123,140,999999,999999,999999,999999,269,5.8,99,99,9999.0,99999,9,999999999,999.0,0.999,999,99,999.00,999.0,99
2025,1,31,16,60,?9?9?9?9?9?9?9?9?9,6.5,0.5,66,102000,9999,9999,9999,131,143,101,999999,999999,999999,999999,266,6.0,99,99,9999.0,99999,9,999999999,999.0,0.999,999,99,999.00,999.0,99
2025,1,31,17,60,?9?9?9?9?9?9?9?9?9,6.4,-0.1,63,102100,9999,9999,9999,70,257,45,999999,999999,999999,999999,263,5.5,99,99,9999.0,99999,9,999999999,999.0,0.999,999,99,999.00,999.0,99
2025,1,31,18,60,?9?9?9?9?9?9?9?9?9,6.1,-0.4,63,102100,9999,9999,9999,2,0,2,999999,999999,999999,999999,266,5.6,99,99,9999.0,99999,9,999999999,999.0,0.999,999,99,999.00,999.0,99
2025,1,31,19,60,?9?9?9?9?9?9?9?9?9,5.9,0.1,66,102200,9999,9999,9999,0,0,0,999999,999999,999999,999999,269,5.1,99,99,9999.0,99999,9,999999999,999.0,0.999,999,99,999.00,999.0,99
2025,1,31,20,60,?9?9?9?9?9?9?9?9?9,5.8,0.6,69,102200,9999,9999,9999,0,0,0,999999,999999,999999,999999,272,4.8,99,99,9999.0,99999,9,999999999,999.0,0.999,999,99,999.00,999.0,99
2025,1,31,21,60,?9?9?9?9?9?9?9?9?9,5.3,0.8,73,102300,9999,9999,9999,0,0,0,999999,999999,999999,999999,271,4.7,99,99,9999.0,99999,9,999999999,999.0,0.999,999,99,999.00,999.0,99
2025,1,31,22,60,?9?9?9?9?9?9?9?9?9,5.0,1.1,76,102400,9999,9999,9999,0,0,0,999999,999999,999999,999999,272,4.1,99,99,9999.0,99999,9,999999999,999.0,0.999,999,99,999.00,999.0,99
2025,1,31,23,60,?9?9?9?9?9?9?9?9?9,5.1,1.3,76,102500,9999,9999,9999,0,0,0,999999,999999,999999,999999,287,3.7,99,99,9999.0,99999,9,999999999,999.0,0.999,999,99,999.00,999.0,99
2025,1,31,24,60,?9?9?9?9?9?9?9?9?9,4.5,0.8,77,102500,9999,9999,9999,0,0,0,999999,999999,999999,999999,271,3.6,99,99,9999.0,99999,9,999999999,999.0,0.999,999,99,999.00,999.0,99
2025,2,1,1,60,?9?9?9?9?9?9?9?9?9,4.2,1.0,80,102600,9999,9999,9999,0,0,0,999999,999999,999999,999999,272,3.5,99,99,9999.0,99999,9,999999999,999.0,0.999,999,99,999.00,999.0,99
